Y4 Ti4 S4 O10
1.0
3.770023 0.000000 0.000000
-0.000000 3.770023 0.000000
0.000000 0.000000 68.110540
Y Ti S O
4 4 4 10
direct
0.500000 0.500000 0.305743 Y3+
0.000000 0.000000 0.027590 Y3+
0.000000 0.000000 0.139077 Y3+
0.500000 0.500000 0.194257 Y3+
0.500000 0.500000 0.056629 Ti4+
0.000000 0.000000 0.276704 Ti4+
0.000000 0.000000 0.223296 Ti4+
0.500000 0.500000 0.110038 Ti4+
0.500000 0.500000 0.014736 S2-
0.000000 0.000000 0.318597 S2-
0.000000 0.000000 0.181403 S2-
0.500000 0.500000 0.151930 S2-
0.000000 0.000000 0.250000 O2-
0.000000 0.500000 0.049625 O2-
0.000000 0.500000 0.283708 O2-
0.500000 0.000000 0.049625 O2-
0.500000 0.000000 0.283708 O2-
0.500000 0.500000 0.083333 O2-
0.500000 0.000000 0.216292 O2-
0.500000 0.000000 0.117041 O2-
0.000000 0.500000 0.216292 O2-
0.000000 0.500000 0.117041 O2-
