Y12 Ti12 S12 O30
1.0
3.767876 0.000000 0.127213
1.868335 11.497905 0.525763
0.000000 0.000000 55.863354
Y Ti S O
12 12 12 30
direct
0.667230 0.676689 0.988851 Y3+
0.332770 0.389978 0.944482 Y3+
0.667230 0.743356 0.922185 Y3+
0.332770 0.456644 0.877815 Y3+
0.667230 0.810022 0.855518 Y3+
0.332770 0.523311 0.811149 Y3+
0.667230 0.876689 0.788851 Y3+
0.332770 0.589978 0.744482 Y3+
0.667230 0.943356 0.722185 Y3+
0.332770 0.656644 0.677815 Y3+
0.667230 0.010022 0.655518 Y3+
0.332770 0.723311 0.611149 Y3+
0.919887 0.188218 0.972008 Ti4+
0.080113 0.878449 0.961326 Ti4+
0.919887 0.254885 0.905341 Ti4+
0.080113 0.945115 0.894659 Ti4+
0.919887 0.321551 0.838674 Ti4+
0.080113 0.011782 0.827992 Ti4+
0.919887 0.388218 0.772008 Ti4+
0.080113 0.078449 0.761326 Ti4+
0.919887 0.454885 0.705341 Ti4+
0.080113 0.145115 0.694659 Ti4+
0.919887 0.521551 0.638674 Ti4+
0.080113 0.211782 0.627992 Ti4+
0.794209 0.431197 0.980386 S2-
0.205791 0.635470 0.952947 S2-
0.794209 0.497864 0.913719 S2-
0.205791 0.702136 0.886281 S2-
0.794209 0.564530 0.847053 S2-
0.205791 0.768803 0.819614 S2-
0.794209 0.631197 0.780386 S2-
0.205791 0.835470 0.752947 S2-
0.794209 0.697864 0.713719 S2-
0.205791 0.902136 0.686281 S2-
0.794209 0.764530 0.647053 S2-
0.205791 0.968803 0.619614 S2-
0.000000 0.033333 0.966667 O2-
0.898876 0.262173 0.940075 O2-
0.601124 0.837827 0.959925 O2-
0.398876 0.228839 0.973408 O2-
0.101124 0.804494 0.993258 O2-
0.000000 0.100000 0.900000 O2-
0.898876 0.328839 0.873408 O2-
0.601124 0.904494 0.893258 O2-
0.398876 0.295506 0.906742 O2-
0.101124 0.871161 0.926592 O2-
0.000000 0.166667 0.833333 O2-
0.898876 0.395506 0.806742 O2-
0.601124 0.971161 0.826592 O2-
0.398876 0.362173 0.840075 O2-
0.101124 0.937827 0.859925 O2-
0.000000 0.233333 0.766667 O2-
0.898876 0.462173 0.740075 O2-
0.601124 0.037827 0.759925 O2-
0.398876 0.428839 0.773408 O2-
0.101124 0.004494 0.793258 O2-
0.000000 0.300000 0.700000 O2-
0.898876 0.528839 0.673408 O2-
0.601124 0.104494 0.693258 O2-
0.398876 0.495506 0.706742 O2-
0.101124 0.071161 0.726592 O2-
0.000000 0.366667 0.633333 O2-
0.898876 0.595506 0.606742 O2-
0.601124 0.171161 0.626592 O2-
0.398876 0.562173 0.640075 O2-
0.101124 0.137827 0.659925 O2-
