Y24 Ti24 S24 O60
1.0
3.770023 0.000000 0.000000
-0.000000 22.703513 0.000000
0.000000 0.000000 52.780322
Y Ti S O
24 24 24 60
direct
0.500000 0.167230 0.017857 Y3+
0.000000 0.332770 0.053571 Y3+
0.000000 0.667230 0.053571 Y3+
0.500000 0.832770 0.017857 Y3+
0.500000 0.167230 0.089286 Y3+
0.000000 0.332770 0.125000 Y3+
0.000000 0.667230 0.125000 Y3+
0.500000 0.832770 0.089286 Y3+
0.500000 0.167230 0.160714 Y3+
0.000000 0.332770 0.196429 Y3+
0.000000 0.667230 0.196429 Y3+
0.500000 0.832770 0.160714 Y3+
0.500000 0.167230 0.232143 Y3+
0.000000 0.332770 0.267857 Y3+
0.000000 0.667230 0.267857 Y3+
0.500000 0.832770 0.232143 Y3+
0.500000 0.167230 0.303571 Y3+
0.000000 0.332770 0.339286 Y3+
0.000000 0.667230 0.339286 Y3+
0.500000 0.832770 0.303571 Y3+
0.500000 0.167230 0.375000 Y3+
0.000000 0.332770 0.410714 Y3+
0.000000 0.667230 0.410714 Y3+
0.500000 0.832770 0.375000 Y3+
0.500000 0.419887 0.017857 Ti4+
0.000000 0.080113 0.053571 Ti4+
0.000000 0.919887 0.053571 Ti4+
0.500000 0.580113 0.017857 Ti4+
0.500000 0.419887 0.089286 Ti4+
0.000000 0.080113 0.125000 Ti4+
0.000000 0.919887 0.125000 Ti4+
0.500000 0.580113 0.089286 Ti4+
0.500000 0.419887 0.160714 Ti4+
0.000000 0.080113 0.196429 Ti4+
0.000000 0.919887 0.196429 Ti4+
0.500000 0.580113 0.160714 Ti4+
0.500000 0.419887 0.232143 Ti4+
0.000000 0.080113 0.267857 Ti4+
0.000000 0.919887 0.267857 Ti4+
0.500000 0.580113 0.232143 Ti4+
0.500000 0.419887 0.303571 Ti4+
0.000000 0.080113 0.339286 Ti4+
0.000000 0.919887 0.339286 Ti4+
0.500000 0.580113 0.303571 Ti4+
0.500000 0.419887 0.375000 Ti4+
0.000000 0.080113 0.410714 Ti4+
0.000000 0.919887 0.410714 Ti4+
0.500000 0.580113 0.375000 Ti4+
0.500000 0.294209 0.017857 S2-
0.000000 0.205791 0.053571 S2-
0.000000 0.794209 0.053571 S2-
0.500000 0.705791 0.017857 S2-
0.500000 0.294209 0.089286 S2-
0.000000 0.205791 0.125000 S2-
0.000000 0.794209 0.125000 S2-
0.500000 0.705791 0.089286 S2-
0.500000 0.294209 0.160714 S2-
0.000000 0.205791 0.196429 S2-
0.000000 0.794209 0.196429 S2-
0.500000 0.705791 0.160714 S2-
0.500000 0.294209 0.232143 S2-
0.000000 0.205791 0.267857 S2-
0.000000 0.794209 0.267857 S2-
0.500000 0.705791 0.232143 S2-
0.500000 0.294209 0.303571 S2-
0.000000 0.205791 0.339286 S2-
0.000000 0.794209 0.339286 S2-
0.500000 0.705791 0.303571 S2-
0.500000 0.294209 0.375000 S2-
0.000000 0.205791 0.410714 S2-
0.000000 0.794209 0.410714 S2-
0.500000 0.705791 0.375000 S2-
0.000000 0.000000 0.053571 O2-
0.500000 0.398876 0.053571 O2-
0.500000 0.101124 0.053571 O2-
0.000000 0.398876 0.017857 O2-
0.000000 0.101124 0.017857 O2-
0.500000 0.500000 0.017857 O2-
0.000000 0.898876 0.017857 O2-
0.000000 0.601124 0.017857 O2-
0.500000 0.898876 0.053571 O2-
0.500000 0.601124 0.053571 O2-
0.000000 0.000000 0.125000 O2-
0.500000 0.398876 0.125000 O2-
0.500000 0.101124 0.125000 O2-
0.000000 0.398876 0.089286 O2-
0.000000 0.101124 0.089286 O2-
0.500000 0.500000 0.089286 O2-
0.000000 0.898876 0.089286 O2-
0.000000 0.601124 0.089286 O2-
0.500000 0.898876 0.125000 O2-
0.500000 0.601124 0.125000 O2-
0.000000 0.000000 0.196429 O2-
0.500000 0.398876 0.196429 O2-
0.500000 0.101124 0.196429 O2-
0.000000 0.398876 0.160714 O2-
0.000000 0.101124 0.160714 O2-
0.500000 0.500000 0.160714 O2-
0.000000 0.898876 0.160714 O2-
0.000000 0.601124 0.160714 O2-
0.500000 0.898876 0.196429 O2-
0.500000 0.601124 0.196429 O2-
0.000000 0.000000 0.267857 O2-
0.500000 0.398876 0.267857 O2-
0.500000 0.101124 0.267857 O2-
0.000000 0.398876 0.232143 O2-
0.000000 0.101124 0.232143 O2-
0.500000 0.500000 0.232143 O2-
0.000000 0.898876 0.232143 O2-
0.000000 0.601124 0.232143 O2-
0.500000 0.898876 0.267857 O2-
0.500000 0.601124 0.267857 O2-
0.000000 0.000000 0.339286 O2-
0.500000 0.398876 0.339286 O2-
0.500000 0.101124 0.339286 O2-
0.000000 0.398876 0.303571 O2-
0.000000 0.101124 0.303571 O2-
0.500000 0.500000 0.303571 O2-
0.000000 0.898876 0.303571 O2-
0.000000 0.601124 0.303571 O2-
0.500000 0.898876 0.339286 O2-
0.500000 0.601124 0.339286 O2-
0.000000 0.000000 0.410714 O2-
0.500000 0.398876 0.410714 O2-
0.500000 0.101124 0.410714 O2-
0.000000 0.398876 0.375000 O2-
0.000000 0.101124 0.375000 O2-
0.500000 0.500000 0.375000 O2-
0.000000 0.898876 0.375000 O2-
0.000000 0.601124 0.375000 O2-
0.500000 0.898876 0.410714 O2-
0.500000 0.601124 0.410714 O2-
