Y32 Ti32 S32 O80
1.0
5.331618 0.000000 0.000000
2.665809 22.703513 -2.665809
0.000000 0.000000 53.316177
Y Ti S O
32 32 32 80
direct
0.041385 0.167230 0.045861 Y3+
0.958615 0.332770 0.004139 Y3+
0.791385 0.667230 0.020861 Y3+
0.208615 0.832770 0.029139 Y3+
0.541385 0.167230 0.095861 Y3+
0.458615 0.332770 0.054139 Y3+
0.291385 0.667230 0.070861 Y3+
0.708615 0.832770 0.079139 Y3+
0.041385 0.167230 0.145861 Y3+
0.958615 0.332770 0.104139 Y3+
0.791385 0.667230 0.120861 Y3+
0.208615 0.832770 0.129139 Y3+
0.541385 0.167230 0.195861 Y3+
0.458615 0.332770 0.154139 Y3+
0.291385 0.667230 0.170861 Y3+
0.708615 0.832770 0.179139 Y3+
0.041385 0.167230 0.245861 Y3+
0.958615 0.332770 0.204139 Y3+
0.791385 0.667230 0.220861 Y3+
0.208615 0.832770 0.229139 Y3+
0.541385 0.167230 0.295861 Y3+
0.458615 0.332770 0.254139 Y3+
0.291385 0.667230 0.270861 Y3+
0.708615 0.832770 0.279139 Y3+
0.041385 0.167230 0.345861 Y3+
0.958615 0.332770 0.304139 Y3+
0.791385 0.667230 0.320861 Y3+
0.208615 0.832770 0.329139 Y3+
0.541385 0.167230 0.395861 Y3+
0.458615 0.332770 0.354139 Y3+
0.291385 0.667230 0.370861 Y3+
0.708615 0.832770 0.379139 Y3+
0.415056 0.419887 0.008494 Ti4+
0.584944 0.080113 0.041506 Ti4+
0.665056 0.919887 0.033494 Ti4+
0.334944 0.580113 0.016506 Ti4+
0.915056 0.419887 0.058494 Ti4+
0.084944 0.080113 0.091506 Ti4+
0.165056 0.919887 0.083494 Ti4+
0.834944 0.580113 0.066506 Ti4+
0.415056 0.419887 0.108494 Ti4+
0.584944 0.080113 0.141506 Ti4+
0.665056 0.919887 0.133494 Ti4+
0.334944 0.580113 0.116506 Ti4+
0.915056 0.419887 0.158494 Ti4+
0.084944 0.080113 0.191506 Ti4+
0.165056 0.919887 0.183494 Ti4+
0.834944 0.580113 0.166506 Ti4+
0.415056 0.419887 0.208494 Ti4+
0.584944 0.080113 0.241506 Ti4+
0.665056 0.919887 0.233494 Ti4+
0.334944 0.580113 0.216506 Ti4+
0.915056 0.419887 0.258494 Ti4+
0.084944 0.080113 0.291506 Ti4+
0.165056 0.919887 0.283494 Ti4+
0.834944 0.580113 0.266506 Ti4+
0.415056 0.419887 0.308494 Ti4+
0.584944 0.080113 0.341506 Ti4+
0.665056 0.919887 0.333494 Ti4+
0.334944 0.580113 0.316506 Ti4+
0.915056 0.419887 0.358494 Ti4+
0.084944 0.080113 0.391506 Ti4+
0.165056 0.919887 0.383494 Ti4+
0.834944 0.580113 0.366506 Ti4+
0.477896 0.294209 0.002210 S2-
0.522104 0.205791 0.047790 S2-
0.727896 0.794209 0.027210 S2-
0.272104 0.705791 0.022790 S2-
0.977896 0.294209 0.052210 S2-
0.022104 0.205791 0.097790 S2-
0.227896 0.794209 0.077210 S2-
0.772104 0.705791 0.072790 S2-
0.477896 0.294209 0.102210 S2-
0.522104 0.205791 0.147790 S2-
0.727896 0.794209 0.127210 S2-
0.272104 0.705791 0.122790 S2-
0.977896 0.294209 0.152210 S2-
0.022104 0.205791 0.197790 S2-
0.227896 0.794209 0.177210 S2-
0.772104 0.705791 0.172790 S2-
0.477896 0.294209 0.202210 S2-
0.522104 0.205791 0.247790 S2-
0.727896 0.794209 0.227210 S2-
0.272104 0.705791 0.222790 S2-
0.977896 0.294209 0.252210 S2-
0.022104 0.205791 0.297790 S2-
0.227896 0.794209 0.277210 S2-
0.772104 0.705791 0.272790 S2-
0.477896 0.294209 0.302210 S2-
0.522104 0.205791 0.347790 S2-
0.727896 0.794209 0.327210 S2-
0.272104 0.705791 0.322790 S2-
0.977896 0.294209 0.352210 S2-
0.022104 0.205791 0.397790 S2-
0.227896 0.794209 0.377210 S2-
0.772104 0.705791 0.372790 S2-
0.625000 0.000000 0.037500 O2-
0.175562 0.398876 0.032444 O2-
0.324438 0.101124 0.017556 O2-
0.675562 0.398876 0.032444 O2-
0.824438 0.101124 0.017556 O2-
0.375000 0.500000 0.012500 O2-
0.925562 0.898876 0.007444 O2-
0.574438 0.601124 0.042556 O2-
0.425562 0.898876 0.007444 O2-
0.074438 0.601124 0.042556 O2-
0.125000 0.000000 0.087500 O2-
0.675562 0.398876 0.082444 O2-
0.824438 0.101124 0.067556 O2-
0.175562 0.398876 0.082444 O2-
0.324438 0.101124 0.067556 O2-
0.875000 0.500000 0.062500 O2-
0.425562 0.898876 0.057444 O2-
0.074438 0.601124 0.092556 O2-
0.925562 0.898876 0.057444 O2-
0.574438 0.601124 0.092556 O2-
0.625000 0.000000 0.137500 O2-
0.175562 0.398876 0.132444 O2-
0.324438 0.101124 0.117556 O2-
0.675562 0.398876 0.132444 O2-
0.824438 0.101124 0.117556 O2-
0.375000 0.500000 0.112500 O2-
0.925562 0.898876 0.107444 O2-
0.574438 0.601124 0.142556 O2-
0.425562 0.898876 0.107444 O2-
0.074438 0.601124 0.142556 O2-
0.125000 0.000000 0.187500 O2-
0.675562 0.398876 0.182444 O2-
0.824438 0.101124 0.167556 O2-
0.175562 0.398876 0.182444 O2-
0.324438 0.101124 0.167556 O2-
0.875000 0.500000 0.162500 O2-
0.425562 0.898876 0.157444 O2-
0.074438 0.601124 0.192556 O2-
0.925562 0.898876 0.157444 O2-
0.574438 0.601124 0.192556 O2-
0.625000 0.000000 0.237500 O2-
0.175562 0.398876 0.232444 O2-
0.324438 0.101124 0.217556 O2-
0.675562 0.398876 0.232444 O2-
0.824438 0.101124 0.217556 O2-
0.375000 0.500000 0.212500 O2-
0.925562 0.898876 0.207444 O2-
0.574438 0.601124 0.242556 O2-
0.425562 0.898876 0.207444 O2-
0.074438 0.601124 0.242556 O2-
0.125000 0.000000 0.287500 O2-
0.675562 0.398876 0.282444 O2-
0.824438 0.101124 0.267556 O2-
0.175562 0.398876 0.282444 O2-
0.324438 0.101124 0.267556 O2-
0.875000 0.500000 0.262500 O2-
0.425562 0.898876 0.257444 O2-
0.074438 0.601124 0.292556 O2-
0.925562 0.898876 0.257444 O2-
0.574438 0.601124 0.292556 O2-
0.625000 0.000000 0.337500 O2-
0.175562 0.398876 0.332444 O2-
0.324438 0.101124 0.317556 O2-
0.675562 0.398876 0.332444 O2-
0.824438 0.101124 0.317556 O2-
0.375000 0.500000 0.312500 O2-
0.925562 0.898876 0.307444 O2-
0.574438 0.601124 0.342556 O2-
0.425562 0.898876 0.307444 O2-
0.074438 0.601124 0.342556 O2-
0.125000 0.000000 0.387500 O2-
0.675562 0.398876 0.382444 O2-
0.824438 0.101124 0.367556 O2-
0.175562 0.398876 0.382444 O2-
0.324438 0.101124 0.367556 O2-
0.875000 0.500000 0.362500 O2-
0.425562 0.898876 0.357444 O2-
0.074438 0.601124 0.392556 O2-
0.925562 0.898876 0.357444 O2-
0.574438 0.601124 0.392556 O2-
