Y4 Ti4 S4 O10
1.0
3.770023 0.000000 0.000000
-0.000000 3.770023 0.000000
0.000000 0.000000 45.407027
Y Ti S O
4 4 4 10
direct
0.500000 0.500000 0.458615 Y3+
0.000000 0.000000 0.041385 Y3+
0.000000 0.000000 0.208615 Y3+
0.500000 0.500000 0.291385 Y3+
0.500000 0.500000 0.084944 Ti4+
0.000000 0.000000 0.415056 Ti4+
0.000000 0.000000 0.334944 Ti4+
0.500000 0.500000 0.165056 Ti4+
0.500000 0.500000 0.022104 S2-
0.000000 0.000000 0.477896 S2-
0.000000 0.000000 0.272104 S2-
0.500000 0.500000 0.227896 S2-
0.000000 0.000000 0.375000 O2-
0.000000 0.500000 0.074438 O2-
0.000000 0.500000 0.425562 O2-
0.500000 0.000000 0.074438 O2-
0.500000 0.000000 0.425562 O2-
0.500000 0.500000 0.125000 O2-
0.500000 0.000000 0.324438 O2-
0.500000 0.000000 0.175562 O2-
0.000000 0.500000 0.324438 O2-
0.000000 0.500000 0.175562 O2-
