pymatgen with grid density = 913 / number of atoms
0
Gamma
7 2 1
