Y18 Ti18 S18 O45
1.0
3.767876 0.000000 0.127213
1.868335 11.497905 0.525763
0.000000 0.000000 55.863354
Y Ti S O
18 18 18 45
direct
0.667230 0.876689 0.788851 Y3+
0.332770 0.589978 0.744482 Y3+
0.667230 0.943356 0.722185 Y3+
0.332770 0.656644 0.677815 Y3+
0.667230 0.010022 0.655518 Y3+
0.332770 0.723311 0.611149 Y3+
0.667230 0.076689 0.588851 Y3+
0.332770 0.789978 0.544482 Y3+
0.667230 0.143356 0.522185 Y3+
0.332770 0.856644 0.477815 Y3+
0.667230 0.210022 0.455518 Y3+
0.332770 0.923311 0.411149 Y3+
0.667230 0.276689 0.388851 Y3+
0.332770 0.989978 0.344482 Y3+
0.667230 0.343356 0.322185 Y3+
0.332770 0.056644 0.277815 Y3+
0.667230 0.410022 0.255518 Y3+
0.332770 0.123311 0.211149 Y3+
0.919887 0.388218 0.772008 Ti4+
0.080113 0.078449 0.761326 Ti4+
0.919887 0.454885 0.705341 Ti4+
0.080113 0.145115 0.694659 Ti4+
0.919887 0.521551 0.638674 Ti4+
0.080113 0.211782 0.627992 Ti4+
0.919887 0.588218 0.572008 Ti4+
0.080113 0.278449 0.561326 Ti4+
0.919887 0.654885 0.505341 Ti4+
0.080113 0.345115 0.494659 Ti4+
0.919887 0.721551 0.438674 Ti4+
0.080113 0.411782 0.427992 Ti4+
0.919887 0.788218 0.372008 Ti4+
0.080113 0.478449 0.361326 Ti4+
0.919887 0.854885 0.305341 Ti4+
0.080113 0.545115 0.294659 Ti4+
0.919887 0.921551 0.238674 Ti4+
0.080113 0.611782 0.227992 Ti4+
0.794209 0.631197 0.780386 S2-
0.205791 0.835470 0.752947 S2-
0.794209 0.697864 0.713719 S2-
0.205791 0.902136 0.686281 S2-
0.794209 0.764530 0.647053 S2-
0.205791 0.968803 0.619614 S2-
0.794209 0.831197 0.580386 S2-
0.205791 0.035470 0.552947 S2-
0.794209 0.897864 0.513719 S2-
0.205791 0.102136 0.486281 S2-
0.794209 0.964530 0.447053 S2-
0.205791 0.168803 0.419614 S2-
0.794209 0.031197 0.380386 S2-
0.205791 0.235470 0.352947 S2-
0.794209 0.097864 0.313719 S2-
0.205791 0.302136 0.286281 S2-
0.794209 0.164530 0.247053 S2-
0.205791 0.368803 0.219614 S2-
1.000000 0.233333 0.766667 O2-
0.898876 0.462173 0.740075 O2-
0.601124 0.037827 0.759925 O2-
0.398876 0.428839 0.773408 O2-
0.101124 0.004494 0.793258 O2-
1.000000 0.300000 0.700000 O2-
0.898876 0.528839 0.673408 O2-
0.601124 0.104494 0.693258 O2-
0.398876 0.495506 0.706742 O2-
0.101124 0.071161 0.726592 O2-
1.000000 0.366667 0.633333 O2-
0.898876 0.595506 0.606742 O2-
0.601124 0.171161 0.626592 O2-
0.398876 0.562173 0.640075 O2-
0.101124 0.137827 0.659925 O2-
1.000000 0.433333 0.566667 O2-
0.898876 0.662173 0.540075 O2-
0.601124 0.237827 0.559925 O2-
0.398876 0.628839 0.573408 O2-
0.101124 0.204494 0.593258 O2-
1.000000 0.500000 0.500000 O2-
0.898876 0.728839 0.473408 O2-
0.601124 0.304494 0.493258 O2-
0.398876 0.695506 0.506742 O2-
0.101124 0.271161 0.526592 O2-
1.000000 0.566667 0.433333 O2-
0.898876 0.795506 0.406742 O2-
0.601124 0.371161 0.426592 O2-
0.398876 0.762173 0.440075 O2-
0.101124 0.337827 0.459925 O2-
1.000000 0.633333 0.366667 O2-
0.898876 0.862173 0.340075 O2-
0.601124 0.437827 0.359925 O2-
0.398876 0.828839 0.373408 O2-
0.101124 0.404494 0.393258 O2-
1.000000 0.700000 0.300000 O2-
0.898876 0.928839 0.273408 O2-
0.601124 0.504494 0.293258 O2-
0.398876 0.895506 0.306742 O2-
0.101124 0.471161 0.326592 O2-
1.000000 0.766667 0.233333 O2-
0.898876 0.995506 0.206742 O2-
0.601124 0.571161 0.226592 O2-
0.398876 0.962173 0.240075 O2-
0.101124 0.537827 0.259925 O2-
