Sn6 O6
1.0
3.832150 0.000000 0.000000
-0.000000 3.832150 0.000000
0.000000 0.000000 28.756344
Sn O
6 6
direct
0.750000 0.750000 0.123722 Sn2+
0.250000 0.250000 0.042944 Sn2+
0.750000 0.750000 0.290389 Sn2+
0.250000 0.250000 0.209611 Sn2+
0.750000 0.750000 0.457056 Sn2+
0.250000 0.250000 0.376278 Sn2+
0.250000 0.750000 0.083333 O2-
0.750000 0.250000 0.083333 O2-
0.250000 0.750000 0.250000 O2-
0.750000 0.250000 0.250000 O2-
0.250000 0.750000 0.416667 O2-
0.750000 0.250000 0.416667 O2-
