ADDGRID = False
ALGO = Normal
EDIFF = 1e-06
EDIFFG = -0.01
ENCUT = 500
GGA = Ps
ISIF = 2
ISMEAR = 0
ISYM = 2
IWAVPR = 1
LASPH = True
LCHARG = False
LORBIT = 11
LREAL = Auto
LVHAR = True
LWAVE = False
NEDOS = 2000
NELM = 150
NSW = 0
PREC = Accurate
SIGMA = 0.02
