Sn30 O60                                
   1.00000000000000     
     3.2161689999999998    0.0000000000000000    0.0000000000000000
     0.0000000000000000    6.7497049999999996    0.0000000000000000
     0.0000000000000000    0.0000000000000000   80.9964570000000066
   Sn   O 
    30    60
Direct
  0.0000000000000000  0.7500000000000000  0.2100387436491715
  0.5000000000000000  0.2500000000000000  0.2060037650696884
  0.0000000000000000  0.2500000000000000  0.2492069835397643
  0.5000000000000000  0.7500000000000000  0.2511951924302025
  0.0000000000000000  0.7500000000000000  0.2923503778508376
  0.5000000000000000  0.2500000000000000  0.2913132576020985
  0.0000000000000000  0.2500000000000000  0.3331770417083746
  0.5000000000000000  0.7500000000000000  0.3337399273041655
  0.0000000000000000  0.7500000000000000  0.3752376590601827
  0.5000000000000000  0.2500000000000000  0.3749379095001686
  0.0000000000000000  0.2500000000000000  0.4166369356443411
  0.5000000000000000  0.7500000000000000  0.4167917722879722
  0.0000000000000000  0.7500000000000000  0.4583855005882711
  0.5000000000000000  0.2500000000000000  0.4583225464875156
  0.0000000000000000  0.2500000000000000  0.5000000000000000
  0.5000000000000000  0.7500000000000000  0.5000000000000000
  0.0000000000000000  0.7500000000000000  0.5416144994117289
  0.5000000000000000  0.2500000000000000  0.5416774535124844
  0.0000000000000000  0.2500000000000000  0.5833630643556589
  0.5000000000000000  0.7500000000000000  0.5832082277120278
  0.0000000000000000  0.7500000000000000  0.6247623409398173
  0.5000000000000000  0.2500000000000000  0.6250620904998314
  0.0000000000000000  0.2500000000000000  0.6668229582916254
  0.5000000000000000  0.7500000000000000  0.6662600726958345
  0.0000000000000000  0.7500000000000000  0.7076496221491624
  0.5000000000000000  0.2500000000000000  0.7086867423979015
  0.0000000000000000  0.2500000000000000  0.7507930164602357
  0.5000000000000000  0.7500000000000000  0.7488048075697975
  0.0000000000000000  0.7500000000000000  0.7899612563508285
  0.5000000000000000  0.2500000000000000  0.7939962349303187
  0.0000000000000000  0.2500000000000000  0.2239489988701138
  0.0000000000000000  0.2500000000000000  0.1914677095262292
  0.5000000000000000  0.9354055081279569  0.2065221095366354
  0.5000000000000000  0.5645944918720431  0.2065221095366354
  0.0000000000000000  0.7500000000000000  0.2668818001706228
  0.0000000000000000  0.7500000000000000  0.2347147731897792
  0.5000000000000000  0.4458020628235815  0.2500998058656947
  0.5000000000000000  0.0541979371764185  0.2500998058656947
  0.0000000000000000  0.2500000000000000  0.3076264959349473
  0.0000000000000000  0.2500000000000000  0.2751399580477099
  0.5000000000000000  0.9434621189662735  0.2919618124486050
  0.5000000000000000  0.5565378810337265  0.2919618124486050
  0.0000000000000000  0.7500000000000000  0.3497740774103093
  0.0000000000000000  0.7500000000000000  0.3176490648870995
  0.5000000000000000  0.4438656771812077  0.3333774104896747
  0.5000000000000000  0.0561343228187923  0.3333774104896747
  0.0000000000000000  0.2500000000000000  0.3911208852265204
  0.0000000000000000  0.2500000000000000  0.3587869416035474
  0.5000000000000000  0.9437284318241765  0.3751234412781486
  0.5000000000000000  0.5562715681758235  0.3751234412781486
  0.0000000000000000  0.7500000000000000  0.4328971315465822
  0.0000000000000000  0.7500000000000000  0.4006756452426430
  0.5000000000000000  0.4438029901617142  0.4166872673437894
  0.5000000000000000  0.0561970098382858  0.4166872673437894
  0.0000000000000000  0.2500000000000000  0.4744767520902755
  0.0000000000000000  0.2500000000000000  0.4421760847835543
  0.5000000000000000  0.9437421685871570  0.4583574649593771
  0.5000000000000000  0.5562578314128430  0.4583574649593771
  0.0000000000000000  0.7500000000000000  0.5161267775513281
  0.0000000000000000  0.7500000000000000  0.4838732224486719
  0.5000000000000000  0.4437707869045155  0.5000000000000000
  0.5000000000000000  0.0562292130954845  0.5000000000000000
  0.0000000000000000  0.2500000000000000  0.5578239152164457
  0.0000000000000000  0.2500000000000000  0.5255232479097245
  0.5000000000000000  0.9437421685871570  0.5416425350406229
  0.5000000000000000  0.5562578314128430  0.5416425350406229
  0.0000000000000000  0.7500000000000000  0.5993243547573570
  0.0000000000000000  0.7500000000000000  0.5671028684534178
  0.5000000000000000  0.4438029901617142  0.5833127326562106
  0.5000000000000000  0.0561970098382858  0.5833127326562106
  0.0000000000000000  0.2500000000000000  0.6412130583964526
  0.0000000000000000  0.2500000000000000  0.6088791147734796
  0.5000000000000000  0.9437284318241765  0.6248765587218514
  0.5000000000000000  0.5562715681758235  0.6248765587218514
  0.0000000000000000  0.7500000000000000  0.6823509351129005
  0.0000000000000000  0.7500000000000000  0.6502259225896907
  0.5000000000000000  0.4438656771812077  0.6666225895103253
  0.5000000000000000  0.0561343228187923  0.6666225895103253
  0.0000000000000000  0.2500000000000000  0.7248600419522901
  0.0000000000000000  0.2500000000000000  0.6923735040650527
  0.5000000000000000  0.9434621189662735  0.7080381875513950
  0.5000000000000000  0.5565378810337265  0.7080381875513950
  0.0000000000000000  0.7500000000000000  0.7652852268102208
  0.0000000000000000  0.7500000000000000  0.7331181998293772
  0.5000000000000000  0.4458020628235815  0.7499001941343053
  0.5000000000000000  0.0541979371764185  0.7499001941343053
  0.0000000000000000  0.2500000000000000  0.8085322904737708
  0.0000000000000000  0.2500000000000000  0.7760510011298862
  0.5000000000000000  0.9354055081279569  0.7934778904633646
  0.5000000000000000  0.5645944918720431  0.7934778904633646
 
  0.00000000E+00  0.00000000E+00  0.00000000E+00
  0.00000000E+00  0.00000000E+00  0.00000000E+00
  0.00000000E+00  0.00000000E+00  0.00000000E+00
  0.00000000E+00  0.00000000E+00  0.00000000E+00
  0.00000000E+00  0.00000000E+00  0.00000000E+00
  0.00000000E+00  0.00000000E+00  0.00000000E+00
  0.00000000E+00  0.00000000E+00  0.00000000E+00
  0.00000000E+00  0.00000000E+00  0.00000000E+00
  0.00000000E+00  0.00000000E+00  0.00000000E+00
  0.00000000E+00  0.00000000E+00  0.00000000E+00
  0.00000000E+00  0.00000000E+00  0.00000000E+00
  0.00000000E+00  0.00000000E+00  0.00000000E+00
  0.00000000E+00  0.00000000E+00  0.00000000E+00
  0.00000000E+00  0.00000000E+00  0.00000000E+00
  0.00000000E+00  0.00000000E+00  0.00000000E+00
  0.00000000E+00  0.00000000E+00  0.00000000E+00
  0.00000000E+00  0.00000000E+00  0.00000000E+00
  0.00000000E+00  0.00000000E+00  0.00000000E+00
  0.00000000E+00  0.00000000E+00  0.00000000E+00
  0.00000000E+00  0.00000000E+00  0.00000000E+00
  0.00000000E+00  0.00000000E+00  0.00000000E+00
  0.00000000E+00  0.00000000E+00  0.00000000E+00
  0.00000000E+00  0.00000000E+00  0.00000000E+00
  0.00000000E+00  0.00000000E+00  0.00000000E+00
  0.00000000E+00  0.00000000E+00  0.00000000E+00
  0.00000000E+00  0.00000000E+00  0.00000000E+00
  0.00000000E+00  0.00000000E+00  0.00000000E+00
  0.00000000E+00  0.00000000E+00  0.00000000E+00
  0.00000000E+00  0.00000000E+00  0.00000000E+00
  0.00000000E+00  0.00000000E+00  0.00000000E+00
  0.00000000E+00  0.00000000E+00  0.00000000E+00
  0.00000000E+00  0.00000000E+00  0.00000000E+00
  0.00000000E+00  0.00000000E+00  0.00000000E+00
  0.00000000E+00  0.00000000E+00  0.00000000E+00
  0.00000000E+00  0.00000000E+00  0.00000000E+00
  0.00000000E+00  0.00000000E+00  0.00000000E+00
  0.00000000E+00  0.00000000E+00  0.00000000E+00
  0.00000000E+00  0.00000000E+00  0.00000000E+00
  0.00000000E+00  0.00000000E+00  0.00000000E+00
  0.00000000E+00  0.00000000E+00  0.00000000E+00
  0.00000000E+00  0.00000000E+00  0.00000000E+00
  0.00000000E+00  0.00000000E+00  0.00000000E+00
  0.00000000E+00  0.00000000E+00  0.00000000E+00
  0.00000000E+00  0.00000000E+00  0.00000000E+00
  0.00000000E+00  0.00000000E+00  0.00000000E+00
  0.00000000E+00  0.00000000E+00  0.00000000E+00
  0.00000000E+00  0.00000000E+00  0.00000000E+00
  0.00000000E+00  0.00000000E+00  0.00000000E+00
  0.00000000E+00  0.00000000E+00  0.00000000E+00
  0.00000000E+00  0.00000000E+00  0.00000000E+00
  0.00000000E+00  0.00000000E+00  0.00000000E+00
  0.00000000E+00  0.00000000E+00  0.00000000E+00
  0.00000000E+00  0.00000000E+00  0.00000000E+00
  0.00000000E+00  0.00000000E+00  0.00000000E+00
  0.00000000E+00  0.00000000E+00  0.00000000E+00
  0.00000000E+00  0.00000000E+00  0.00000000E+00
  0.00000000E+00  0.00000000E+00  0.00000000E+00
  0.00000000E+00  0.00000000E+00  0.00000000E+00
  0.00000000E+00  0.00000000E+00  0.00000000E+00
  0.00000000E+00  0.00000000E+00  0.00000000E+00
  0.00000000E+00  0.00000000E+00  0.00000000E+00
  0.00000000E+00  0.00000000E+00  0.00000000E+00
  0.00000000E+00  0.00000000E+00  0.00000000E+00
  0.00000000E+00  0.00000000E+00  0.00000000E+00
  0.00000000E+00  0.00000000E+00  0.00000000E+00
  0.00000000E+00  0.00000000E+00  0.00000000E+00
  0.00000000E+00  0.00000000E+00  0.00000000E+00
  0.00000000E+00  0.00000000E+00  0.00000000E+00
  0.00000000E+00  0.00000000E+00  0.00000000E+00
  0.00000000E+00  0.00000000E+00  0.00000000E+00
  0.00000000E+00  0.00000000E+00  0.00000000E+00
  0.00000000E+00  0.00000000E+00  0.00000000E+00
  0.00000000E+00  0.00000000E+00  0.00000000E+00
  0.00000000E+00  0.00000000E+00  0.00000000E+00
  0.00000000E+00  0.00000000E+00  0.00000000E+00
  0.00000000E+00  0.00000000E+00  0.00000000E+00
  0.00000000E+00  0.00000000E+00  0.00000000E+00
  0.00000000E+00  0.00000000E+00  0.00000000E+00
  0.00000000E+00  0.00000000E+00  0.00000000E+00
  0.00000000E+00  0.00000000E+00  0.00000000E+00
  0.00000000E+00  0.00000000E+00  0.00000000E+00
  0.00000000E+00  0.00000000E+00  0.00000000E+00
  0.00000000E+00  0.00000000E+00  0.00000000E+00
  0.00000000E+00  0.00000000E+00  0.00000000E+00
  0.00000000E+00  0.00000000E+00  0.00000000E+00
  0.00000000E+00  0.00000000E+00  0.00000000E+00
  0.00000000E+00  0.00000000E+00  0.00000000E+00
  0.00000000E+00  0.00000000E+00  0.00000000E+00
  0.00000000E+00  0.00000000E+00  0.00000000E+00
  0.00000000E+00  0.00000000E+00  0.00000000E+00
