Y12 Ti12 S12 O30
1.0
3.770023 0.000000 0.000000
-0.000000 3.770023 0.000000
0.000000 0.000000 113.517567
Y Ti S O
12 12 12 30
direct
0.500000 0.500000 0.383446 Y3+
0.000000 0.000000 0.216554 Y3+
0.000000 0.000000 0.283446 Y3+
0.500000 0.500000 0.316554 Y3+
0.500000 0.500000 0.583446 Y3+
0.000000 0.000000 0.416554 Y3+
0.000000 0.000000 0.483446 Y3+
0.500000 0.500000 0.516554 Y3+
0.500000 0.500000 0.783446 Y3+
0.000000 0.000000 0.616554 Y3+
0.000000 0.000000 0.683446 Y3+
0.500000 0.500000 0.716554 Y3+
0.500000 0.500000 0.233977 Ti4+
0.000000 0.000000 0.366023 Ti4+
0.000000 0.000000 0.333977 Ti4+
0.500000 0.500000 0.266023 Ti4+
0.500000 0.500000 0.433977 Ti4+
0.000000 0.000000 0.566023 Ti4+
0.000000 0.000000 0.533977 Ti4+
0.500000 0.500000 0.466023 Ti4+
0.500000 0.500000 0.633977 Ti4+
0.000000 0.000000 0.766023 Ti4+
0.000000 0.000000 0.733977 Ti4+
0.500000 0.500000 0.666023 Ti4+
0.500000 0.500000 0.208842 S2-
0.000000 0.000000 0.391158 S2-
0.000000 0.000000 0.308842 S2-
0.500000 0.500000 0.291158 S2-
0.500000 0.500000 0.408842 S2-
0.000000 0.000000 0.591158 S2-
0.000000 0.000000 0.508842 S2-
0.500000 0.500000 0.491158 S2-
0.500000 0.500000 0.608842 S2-
0.000000 0.000000 0.791158 S2-
0.000000 0.000000 0.708842 S2-
0.500000 0.500000 0.691158 S2-
0.000000 0.000000 0.350000 O2-
0.000000 0.500000 0.229775 O2-
0.000000 0.500000 0.370225 O2-
0.500000 0.000000 0.229775 O2-
0.500000 0.000000 0.370225 O2-
0.500000 0.500000 0.250000 O2-
0.500000 0.000000 0.329775 O2-
0.500000 0.000000 0.270225 O2-
0.000000 0.500000 0.329775 O2-
0.000000 0.500000 0.270225 O2-
0.000000 0.000000 0.550000 O2-
0.000000 0.500000 0.429775 O2-
0.000000 0.500000 0.570225 O2-
0.500000 0.000000 0.429775 O2-
0.500000 0.000000 0.570225 O2-
0.500000 0.500000 0.450000 O2-
0.500000 0.000000 0.529775 O2-
0.500000 0.000000 0.470225 O2-
0.000000 0.500000 0.529775 O2-
0.000000 0.500000 0.470225 O2-
0.000000 0.000000 0.750000 O2-
0.000000 0.500000 0.629775 O2-
0.000000 0.500000 0.770225 O2-
0.500000 0.000000 0.629775 O2-
0.500000 0.000000 0.770225 O2-
0.500000 0.500000 0.650000 O2-
0.500000 0.000000 0.729775 O2-
0.500000 0.000000 0.670225 O2-
0.000000 0.500000 0.729775 O2-
0.000000 0.500000 0.670225 O2-
