pymatgen v2020.12.31 with grid density = 913 / number of atoms
0
Gamma
5 1 1
