Y12 Ti12 S12 O30
1.0
3.766693 0.000000 0.158429
1.839147 11.459032 1.130062
0.000000 0.000000 44.856378
Y Ti S O
12 12 12 30
direct
0.667230 0.679476 0.986064 Y3+
0.332770 0.403857 0.930602 Y3+
0.667230 0.762810 0.902731 Y3+
0.332770 0.487190 0.847269 Y3+
0.667230 0.846143 0.819398 Y3+
0.332770 0.570524 0.763936 Y3+
0.667230 0.929476 0.736064 Y3+
0.332770 0.653857 0.680602 Y3+
0.667230 0.012810 0.652731 Y3+
0.332770 0.737190 0.597269 Y3+
0.667230 0.096143 0.569398 Y3+
0.332770 0.820524 0.513936 Y3+
0.919887 0.195216 0.965009 Ti4+
0.080113 0.888117 0.951657 Ti4+
0.919887 0.278550 0.881676 Ti4+
0.080113 0.971450 0.868324 Ti4+
0.919887 0.361883 0.798343 Ti4+
0.080113 0.054784 0.784991 Ti4+
0.919887 0.445216 0.715009 Ti4+
0.080113 0.138117 0.701657 Ti4+
0.919887 0.528550 0.631676 Ti4+
0.080113 0.221450 0.618324 Ti4+
0.919887 0.611883 0.548343 Ti4+
0.080113 0.304784 0.534991 Ti4+
0.794209 0.436100 0.975483 S2-
0.205791 0.647233 0.941184 S2-
0.794209 0.519434 0.892149 S2-
0.205791 0.730566 0.857851 S2-
0.794209 0.602767 0.808816 S2-
0.205791 0.813900 0.774517 S2-
0.794209 0.686100 0.725483 S2-
0.205791 0.897233 0.691184 S2-
0.794209 0.769434 0.642149 S2-
0.205791 0.980566 0.607851 S2-
0.794209 0.852767 0.558816 S2-
0.205791 0.063900 0.524517 S2-
0.000000 0.041667 0.958333 O2-
0.898876 0.277154 0.925094 O2-
0.601124 0.847846 0.949906 O2-
0.398876 0.235487 0.966760 O2-
0.101124 0.806179 0.991573 O2-
0.000000 0.125000 0.875000 O2-
0.898876 0.360487 0.841760 O2-
0.601124 0.931179 0.866573 O2-
0.398876 0.318821 0.883427 O2-
0.101124 0.889513 0.908240 O2-
0.000000 0.208333 0.791667 O2-
0.898876 0.443821 0.758427 O2-
0.601124 0.014513 0.783240 O2-
0.398876 0.402154 0.800094 O2-
0.101124 0.972846 0.824906 O2-
0.000000 0.291667 0.708333 O2-
0.898876 0.527154 0.675094 O2-
0.601124 0.097846 0.699906 O2-
0.398876 0.485487 0.716760 O2-
0.101124 0.056179 0.741573 O2-
0.000000 0.375000 0.625000 O2-
0.898876 0.610487 0.591760 O2-
0.601124 0.181179 0.616573 O2-
0.398876 0.568821 0.633427 O2-
0.101124 0.139513 0.658240 O2-
0.000000 0.458333 0.541667 O2-
0.898876 0.693821 0.508427 O2-
0.601124 0.264513 0.533240 O2-
0.398876 0.652154 0.550094 O2-
0.101124 0.222846 0.574906 O2-
