pymatgen v2020.12.31 with grid density = 761 / number of atoms
0
Gamma
5 1 1
