Y8 Ti8 S8 O20
1.0
3.770023 0.000000 0.000000
-0.000000 3.770023 0.000000
0.000000 0.000000 90.814054
Y Ti S O
8 8 8 20
direct
0.500000 0.500000 0.229307 Y3+
0.000000 0.000000 0.020693 Y3+
0.000000 0.000000 0.104307 Y3+
0.500000 0.500000 0.145693 Y3+
0.500000 0.500000 0.479307 Y3+
0.000000 0.000000 0.270693 Y3+
0.000000 0.000000 0.354307 Y3+
0.500000 0.500000 0.395693 Y3+
0.500000 0.500000 0.042472 Ti4+
0.000000 0.000000 0.207528 Ti4+
0.000000 0.000000 0.167472 Ti4+
0.500000 0.500000 0.082528 Ti4+
0.500000 0.500000 0.292472 Ti4+
0.000000 0.000000 0.457528 Ti4+
0.000000 0.000000 0.417472 Ti4+
0.500000 0.500000 0.332528 Ti4+
0.500000 0.500000 0.011052 S2-
0.000000 0.000000 0.238948 S2-
0.000000 0.000000 0.136052 S2-
0.500000 0.500000 0.113948 S2-
0.500000 0.500000 0.261052 S2-
0.000000 0.000000 0.488948 S2-
0.000000 0.000000 0.386052 S2-
0.500000 0.500000 0.363948 S2-
0.000000 0.000000 0.187500 O2-
0.000000 0.500000 0.037219 O2-
0.000000 0.500000 0.212781 O2-
0.500000 0.000000 0.037219 O2-
0.500000 0.000000 0.212781 O2-
0.500000 0.500000 0.062500 O2-
0.500000 0.000000 0.162219 O2-
0.500000 0.000000 0.087781 O2-
0.000000 0.500000 0.162219 O2-
0.000000 0.500000 0.087781 O2-
0.000000 0.000000 0.437500 O2-
0.000000 0.500000 0.287219 O2-
0.000000 0.500000 0.462781 O2-
0.500000 0.000000 0.287219 O2-
0.500000 0.000000 0.462781 O2-
0.500000 0.500000 0.312500 O2-
0.500000 0.000000 0.412219 O2-
0.500000 0.000000 0.337781 O2-
0.000000 0.500000 0.412219 O2-
0.000000 0.500000 0.337781 O2-
