Y8 Ti8 S8 O20
1.0
3.770023 0.000000 0.000000
-0.000000 3.770023 0.000000
0.000000 0.000000 68.110540
Y Ti S O
8 8 8 20
direct
0.500000 0.500000 0.472410 Y3+
0.000000 0.000000 0.194257 Y3+
0.000000 0.000000 0.305743 Y3+
0.500000 0.500000 0.360923 Y3+
0.500000 0.500000 0.805743 Y3+
0.000000 0.000000 0.527590 Y3+
0.000000 0.000000 0.639077 Y3+
0.500000 0.500000 0.694257 Y3+
0.500000 0.500000 0.223296 Ti4+
0.000000 0.000000 0.443371 Ti4+
0.000000 0.000000 0.389962 Ti4+
0.500000 0.500000 0.276704 Ti4+
0.500000 0.500000 0.556629 Ti4+
0.000000 0.000000 0.776704 Ti4+
0.000000 0.000000 0.723296 Ti4+
0.500000 0.500000 0.610038 Ti4+
0.500000 0.500000 0.181403 S2-
0.000000 0.000000 0.485264 S2-
0.000000 0.000000 0.348070 S2-
0.500000 0.500000 0.318597 S2-
0.500000 0.500000 0.514736 S2-
0.000000 0.000000 0.818597 S2-
0.000000 0.000000 0.681403 S2-
0.500000 0.500000 0.651930 S2-
0.000000 0.000000 0.416667 O2-
0.000000 0.500000 0.216292 O2-
0.000000 0.500000 0.450375 O2-
0.500000 0.000000 0.216292 O2-
0.500000 0.000000 0.450375 O2-
0.500000 0.500000 0.250000 O2-
0.500000 0.000000 0.382959 O2-
0.500000 0.000000 0.283708 O2-
0.000000 0.500000 0.382959 O2-
0.000000 0.500000 0.283708 O2-
0.000000 0.000000 0.750000 O2-
0.000000 0.500000 0.549625 O2-
0.000000 0.500000 0.783708 O2-
0.500000 0.000000 0.549625 O2-
0.500000 0.000000 0.783708 O2-
0.500000 0.500000 0.583333 O2-
0.500000 0.000000 0.716292 O2-
0.500000 0.000000 0.617041 O2-
0.000000 0.500000 0.716292 O2-
0.000000 0.500000 0.617041 O2-
