pymatgen with grid density = 609 / number of atoms
0
Gamma
7 2 1
