Y12 Ti12 S12 O30
1.0
3.767876 0.000000 0.127213
1.868335 11.497905 0.525763
0.000000 0.000000 55.863354
Y Ti S O
12 12 12 30
direct
0.667230 0.976689 0.688851 Y3+
0.332770 0.689978 0.644482 Y3+
0.667230 0.043356 0.622185 Y3+
0.332770 0.756644 0.577815 Y3+
0.667230 0.110022 0.555518 Y3+
0.332770 0.823311 0.511149 Y3+
0.667230 0.176689 0.488851 Y3+
0.332770 0.889978 0.444482 Y3+
0.667230 0.243356 0.422185 Y3+
0.332770 0.956644 0.377815 Y3+
0.667230 0.310022 0.355518 Y3+
0.332770 0.023311 0.311149 Y3+
0.919887 0.488218 0.672008 Ti4+
0.080113 0.178449 0.661326 Ti4+
0.919887 0.554885 0.605341 Ti4+
0.080113 0.245115 0.594659 Ti4+
0.919887 0.621551 0.538674 Ti4+
0.080113 0.311782 0.527992 Ti4+
0.919887 0.688218 0.472008 Ti4+
0.080113 0.378449 0.461326 Ti4+
0.919887 0.754885 0.405341 Ti4+
0.080113 0.445115 0.394659 Ti4+
0.919887 0.821551 0.338674 Ti4+
0.080113 0.511782 0.327992 Ti4+
0.794209 0.731197 0.680386 S2-
0.205791 0.935470 0.652947 S2-
0.794209 0.797864 0.613719 S2-
0.205791 0.002136 0.586281 S2-
0.794209 0.864530 0.547053 S2-
0.205791 0.068803 0.519614 S2-
0.794209 0.931197 0.480386 S2-
0.205791 0.135470 0.452947 S2-
0.794209 0.997864 0.413719 S2-
0.205791 0.202136 0.386281 S2-
0.794209 0.064530 0.347053 S2-
0.205791 0.268803 0.319614 S2-
1.000000 0.333333 0.666667 O2-
0.898876 0.562173 0.640075 O2-
0.601124 0.137827 0.659925 O2-
0.398876 0.528839 0.673408 O2-
0.101124 0.104494 0.693258 O2-
1.000000 0.400000 0.600000 O2-
0.898876 0.628839 0.573408 O2-
0.601124 0.204494 0.593258 O2-
0.398876 0.595506 0.606742 O2-
0.101124 0.171161 0.626592 O2-
1.000000 0.466667 0.533333 O2-
0.898876 0.695506 0.506742 O2-
0.601124 0.271161 0.526592 O2-
0.398876 0.662173 0.540075 O2-
0.101124 0.237827 0.559925 O2-
1.000000 0.533333 0.466667 O2-
0.898876 0.762173 0.440075 O2-
0.601124 0.337827 0.459925 O2-
0.398876 0.728839 0.473408 O2-
0.101124 0.304494 0.493258 O2-
1.000000 0.600000 0.400000 O2-
0.898876 0.828839 0.373408 O2-
0.601124 0.404494 0.393258 O2-
0.398876 0.795506 0.406742 O2-
0.101124 0.371161 0.426592 O2-
1.000000 0.666667 0.333333 O2-
0.898876 0.895506 0.306742 O2-
0.601124 0.471161 0.326592 O2-
0.398876 0.862173 0.340075 O2-
0.101124 0.437827 0.359925 O2-
