Y48 Ti48 S48 O120
1.0
5.331618 0.000000 0.000000
2.665809 22.703513 -2.665809
0.000000 0.000000 63.979412
Y Ti S O
48 48 48 120
direct
0.041385 0.167230 0.038218 Y3+
0.958615 0.332770 0.003449 Y3+
0.791385 0.667230 0.017385 Y3+
0.208615 0.832770 0.024282 Y3+
0.541385 0.167230 0.079885 Y3+
0.458615 0.332770 0.045115 Y3+
0.291385 0.667230 0.059051 Y3+
0.708615 0.832770 0.065949 Y3+
0.041385 0.167230 0.121551 Y3+
0.958615 0.332770 0.086782 Y3+
0.791385 0.667230 0.100718 Y3+
0.208615 0.832770 0.107615 Y3+
0.541385 0.167230 0.163218 Y3+
0.458615 0.332770 0.128449 Y3+
0.291385 0.667230 0.142385 Y3+
0.708615 0.832770 0.149282 Y3+
0.041385 0.167230 0.204885 Y3+
0.958615 0.332770 0.170115 Y3+
0.791385 0.667230 0.184051 Y3+
0.208615 0.832770 0.190949 Y3+
0.541385 0.167230 0.246551 Y3+
0.458615 0.332770 0.211782 Y3+
0.291385 0.667230 0.225718 Y3+
0.708615 0.832770 0.232615 Y3+
0.041385 0.167230 0.288218 Y3+
0.958615 0.332770 0.253449 Y3+
0.791385 0.667230 0.267385 Y3+
0.208615 0.832770 0.274282 Y3+
0.541385 0.167230 0.329885 Y3+
0.458615 0.332770 0.295115 Y3+
0.291385 0.667230 0.309051 Y3+
0.708615 0.832770 0.315949 Y3+
0.041385 0.167230 0.371551 Y3+
0.958615 0.332770 0.336782 Y3+
0.791385 0.667230 0.350718 Y3+
0.208615 0.832770 0.357615 Y3+
0.541385 0.167230 0.413218 Y3+
0.458615 0.332770 0.378449 Y3+
0.291385 0.667230 0.392385 Y3+
0.708615 0.832770 0.399282 Y3+
0.041385 0.167230 0.454885 Y3+
0.958615 0.332770 0.420115 Y3+
0.791385 0.667230 0.434051 Y3+
0.208615 0.832770 0.440949 Y3+
0.541385 0.167230 0.496551 Y3+
0.458615 0.332770 0.461782 Y3+
0.291385 0.667230 0.475718 Y3+
0.708615 0.832770 0.482615 Y3+
0.415056 0.419887 0.007079 Ti4+
0.584944 0.080113 0.034588 Ti4+
0.665056 0.919887 0.027912 Ti4+
0.334944 0.580113 0.013755 Ti4+
0.915056 0.419887 0.048745 Ti4+
0.084944 0.080113 0.076255 Ti4+
0.165056 0.919887 0.069579 Ti4+
0.834944 0.580113 0.055421 Ti4+
0.415056 0.419887 0.090412 Ti4+
0.584944 0.080113 0.117921 Ti4+
0.665056 0.919887 0.111245 Ti4+
0.334944 0.580113 0.097088 Ti4+
0.915056 0.419887 0.132079 Ti4+
0.084944 0.080113 0.159588 Ti4+
0.165056 0.919887 0.152912 Ti4+
0.834944 0.580113 0.138755 Ti4+
0.415056 0.419887 0.173745 Ti4+
0.584944 0.080113 0.201255 Ti4+
0.665056 0.919887 0.194579 Ti4+
0.334944 0.580113 0.180421 Ti4+
0.915056 0.419887 0.215412 Ti4+
0.084944 0.080113 0.242921 Ti4+
0.165056 0.919887 0.236245 Ti4+
0.834944 0.580113 0.222088 Ti4+
0.415056 0.419887 0.257079 Ti4+
0.584944 0.080113 0.284588 Ti4+
0.665056 0.919887 0.277912 Ti4+
0.334944 0.580113 0.263755 Ti4+
0.915056 0.419887 0.298745 Ti4+
0.084944 0.080113 0.326255 Ti4+
0.165056 0.919887 0.319579 Ti4+
0.834944 0.580113 0.305421 Ti4+
0.415056 0.419887 0.340412 Ti4+
0.584944 0.080113 0.367921 Ti4+
0.665056 0.919887 0.361245 Ti4+
0.334944 0.580113 0.347088 Ti4+
0.915056 0.419887 0.382079 Ti4+
0.084944 0.080113 0.409588 Ti4+
0.165056 0.919887 0.402912 Ti4+
0.834944 0.580113 0.388755 Ti4+
0.415056 0.419887 0.423745 Ti4+
0.584944 0.080113 0.451255 Ti4+
0.665056 0.919887 0.444579 Ti4+
0.334944 0.580113 0.430421 Ti4+
0.915056 0.419887 0.465412 Ti4+
0.084944 0.080113 0.492921 Ti4+
0.165056 0.919887 0.486245 Ti4+
0.834944 0.580113 0.472088 Ti4+
0.477896 0.294209 0.001842 S2-
0.522104 0.205791 0.039825 S2-
0.727896 0.794209 0.022675 S2-
0.272104 0.705791 0.018991 S2-
0.977896 0.294209 0.043509 S2-
0.022104 0.205791 0.081491 S2-
0.227896 0.794209 0.064342 S2-
0.772104 0.705791 0.060658 S2-
0.477896 0.294209 0.085175 S2-
0.522104 0.205791 0.123158 S2-
0.727896 0.794209 0.106009 S2-
0.272104 0.705791 0.102325 S2-
0.977896 0.294209 0.126842 S2-
0.022104 0.205791 0.164825 S2-
0.227896 0.794209 0.147675 S2-
0.772104 0.705791 0.143991 S2-
0.477896 0.294209 0.168509 S2-
0.522104 0.205791 0.206491 S2-
0.727896 0.794209 0.189342 S2-
0.272104 0.705791 0.185658 S2-
0.977896 0.294209 0.210175 S2-
0.022104 0.205791 0.248158 S2-
0.227896 0.794209 0.231009 S2-
0.772104 0.705791 0.227325 S2-
0.477896 0.294209 0.251842 S2-
0.522104 0.205791 0.289825 S2-
0.727896 0.794209 0.272675 S2-
0.272104 0.705791 0.268991 S2-
0.977896 0.294209 0.293509 S2-
0.022104 0.205791 0.331491 S2-
0.227896 0.794209 0.314342 S2-
0.772104 0.705791 0.310658 S2-
0.477896 0.294209 0.335175 S2-
0.522104 0.205791 0.373158 S2-
0.727896 0.794209 0.356009 S2-
0.272104 0.705791 0.352325 S2-
0.977896 0.294209 0.376842 S2-
0.022104 0.205791 0.414825 S2-
0.227896 0.794209 0.397675 S2-
0.772104 0.705791 0.393991 S2-
0.477896 0.294209 0.418509 S2-
0.522104 0.205791 0.456491 S2-
0.727896 0.794209 0.439342 S2-
0.272104 0.705791 0.435658 S2-
0.977896 0.294209 0.460175 S2-
0.022104 0.205791 0.498158 S2-
0.227896 0.794209 0.481009 S2-
0.772104 0.705791 0.477325 S2-
0.625000 0.000000 0.031250 O2-
0.175562 0.398876 0.027037 O2-
0.324438 0.101124 0.014630 O2-
0.675562 0.398876 0.027037 O2-
0.824438 0.101124 0.014630 O2-
0.375000 0.500000 0.010417 O2-
0.925562 0.898876 0.006203 O2-
0.574438 0.601124 0.035463 O2-
0.425562 0.898876 0.006203 O2-
0.074438 0.601124 0.035463 O2-
0.125000 0.000000 0.072917 O2-
0.675562 0.398876 0.068703 O2-
0.824438 0.101124 0.056297 O2-
0.175562 0.398876 0.068703 O2-
0.324438 0.101124 0.056297 O2-
0.875000 0.500000 0.052083 O2-
0.425562 0.898876 0.047870 O2-
0.074438 0.601124 0.077130 O2-
0.925562 0.898876 0.047870 O2-
0.574438 0.601124 0.077130 O2-
0.625000 0.000000 0.114583 O2-
0.175562 0.398876 0.110370 O2-
0.324438 0.101124 0.097963 O2-
0.675562 0.398876 0.110370 O2-
0.824438 0.101124 0.097963 O2-
0.375000 0.500000 0.093750 O2-
0.925562 0.898876 0.089537 O2-
0.574438 0.601124 0.118797 O2-
0.425562 0.898876 0.089537 O2-
0.074438 0.601124 0.118797 O2-
0.125000 0.000000 0.156250 O2-
0.675562 0.398876 0.152037 O2-
0.824438 0.101124 0.139630 O2-
0.175562 0.398876 0.152037 O2-
0.324438 0.101124 0.139630 O2-
0.875000 0.500000 0.135417 O2-
0.425562 0.898876 0.131203 O2-
0.074438 0.601124 0.160463 O2-
0.925562 0.898876 0.131203 O2-
0.574438 0.601124 0.160463 O2-
0.625000 0.000000 0.197917 O2-
0.175562 0.398876 0.193703 O2-
0.324438 0.101124 0.181297 O2-
0.675562 0.398876 0.193703 O2-
0.824438 0.101124 0.181297 O2-
0.375000 0.500000 0.177083 O2-
0.925562 0.898876 0.172870 O2-
0.574438 0.601124 0.202130 O2-
0.425562 0.898876 0.172870 O2-
0.074438 0.601124 0.202130 O2-
0.125000 0.000000 0.239583 O2-
0.675562 0.398876 0.235370 O2-
0.824438 0.101124 0.222963 O2-
0.175562 0.398876 0.235370 O2-
0.324438 0.101124 0.222963 O2-
0.875000 0.500000 0.218750 O2-
0.425562 0.898876 0.214537 O2-
0.074438 0.601124 0.243797 O2-
0.925562 0.898876 0.214537 O2-
0.574438 0.601124 0.243797 O2-
0.625000 0.000000 0.281250 O2-
0.175562 0.398876 0.277037 O2-
0.324438 0.101124 0.264630 O2-
0.675562 0.398876 0.277037 O2-
0.824438 0.101124 0.264630 O2-
0.375000 0.500000 0.260417 O2-
0.925562 0.898876 0.256203 O2-
0.574438 0.601124 0.285463 O2-
0.425562 0.898876 0.256203 O2-
0.074438 0.601124 0.285463 O2-
0.125000 0.000000 0.322917 O2-
0.675562 0.398876 0.318703 O2-
0.824438 0.101124 0.306297 O2-
0.175562 0.398876 0.318703 O2-
0.324438 0.101124 0.306297 O2-
0.875000 0.500000 0.302083 O2-
0.425562 0.898876 0.297870 O2-
0.074438 0.601124 0.327130 O2-
0.925562 0.898876 0.297870 O2-
0.574438 0.601124 0.327130 O2-
0.625000 0.000000 0.364583 O2-
0.175562 0.398876 0.360370 O2-
0.324438 0.101124 0.347963 O2-
0.675562 0.398876 0.360370 O2-
0.824438 0.101124 0.347963 O2-
0.375000 0.500000 0.343750 O2-
0.925562 0.898876 0.339537 O2-
0.574438 0.601124 0.368797 O2-
0.425562 0.898876 0.339537 O2-
0.074438 0.601124 0.368797 O2-
0.125000 0.000000 0.406250 O2-
0.675562 0.398876 0.402037 O2-
0.824438 0.101124 0.389630 O2-
0.175562 0.398876 0.402037 O2-
0.324438 0.101124 0.389630 O2-
0.875000 0.500000 0.385417 O2-
0.425562 0.898876 0.381203 O2-
0.074438 0.601124 0.410463 O2-
0.925562 0.898876 0.381203 O2-
0.574438 0.601124 0.410463 O2-
0.625000 0.000000 0.447917 O2-
0.175562 0.398876 0.443703 O2-
0.324438 0.101124 0.431297 O2-
0.675562 0.398876 0.443703 O2-
0.824438 0.101124 0.431297 O2-
0.375000 0.500000 0.427083 O2-
0.925562 0.898876 0.422870 O2-
0.574438 0.601124 0.452130 O2-
0.425562 0.898876 0.422870 O2-
0.074438 0.601124 0.452130 O2-
0.125000 0.000000 0.489583 O2-
0.675562 0.398876 0.485370 O2-
0.824438 0.101124 0.472963 O2-
0.175562 0.398876 0.485370 O2-
0.324438 0.101124 0.472963 O2-
0.875000 0.500000 0.468750 O2-
0.425562 0.898876 0.464537 O2-
0.074438 0.601124 0.493797 O2-
0.925562 0.898876 0.464537 O2-
0.574438 0.601124 0.493797 O2-
