pymatgen with grid density = 652 / number of atoms
0
Gamma
7 1 1
