Y8 Ti8 S8 O20
1.0
3.770023 0.000000 0.000000
-0.000000 3.770023 0.000000
0.000000 0.000000 90.814054
Y Ti S O
8 8 8 20
direct
0.500000 0.500000 0.479307 Y3+
0.000000 0.000000 0.270693 Y3+
0.000000 0.000000 0.354307 Y3+
0.500000 0.500000 0.395693 Y3+
0.500000 0.500000 0.729307 Y3+
0.000000 0.000000 0.520693 Y3+
0.000000 0.000000 0.604307 Y3+
0.500000 0.500000 0.645693 Y3+
0.500000 0.500000 0.292472 Ti4+
0.000000 0.000000 0.457528 Ti4+
0.000000 0.000000 0.417472 Ti4+
0.500000 0.500000 0.332528 Ti4+
0.500000 0.500000 0.542472 Ti4+
0.000000 0.000000 0.707528 Ti4+
0.000000 0.000000 0.667472 Ti4+
0.500000 0.500000 0.582528 Ti4+
0.500000 0.500000 0.261052 S2-
0.000000 0.000000 0.488948 S2-
0.000000 0.000000 0.386052 S2-
0.500000 0.500000 0.363948 S2-
0.500000 0.500000 0.511052 S2-
0.000000 0.000000 0.738948 S2-
0.000000 0.000000 0.636052 S2-
0.500000 0.500000 0.613948 S2-
0.000000 0.000000 0.437500 O2-
0.000000 0.500000 0.287219 O2-
0.000000 0.500000 0.462781 O2-
0.500000 0.000000 0.287219 O2-
0.500000 0.000000 0.462781 O2-
0.500000 0.500000 0.312500 O2-
0.500000 0.000000 0.412219 O2-
0.500000 0.000000 0.337781 O2-
0.000000 0.500000 0.412219 O2-
0.000000 0.500000 0.337781 O2-
0.000000 0.000000 0.687500 O2-
0.000000 0.500000 0.537219 O2-
0.000000 0.500000 0.712781 O2-
0.500000 0.000000 0.537219 O2-
0.500000 0.000000 0.712781 O2-
0.500000 0.500000 0.562500 O2-
0.500000 0.000000 0.662219 O2-
0.500000 0.000000 0.587781 O2-
0.000000 0.500000 0.662219 O2-
0.000000 0.500000 0.587781 O2-
