Y32 Ti32 S32 O80
1.0
3.770023 0.000000 0.000000
-0.000000 22.703513 0.000000
0.000000 0.000000 52.780322
Y Ti S O
32 32 32 80
direct
0.500000 0.167230 0.232143 Y3+
0.000000 0.332770 0.267857 Y3+
0.000000 0.667230 0.267857 Y3+
0.500000 0.832770 0.232143 Y3+
0.500000 0.167230 0.303571 Y3+
0.000000 0.332770 0.339286 Y3+
0.000000 0.667230 0.339286 Y3+
0.500000 0.832770 0.303571 Y3+
0.500000 0.167230 0.375000 Y3+
0.000000 0.332770 0.410714 Y3+
0.000000 0.667230 0.410714 Y3+
0.500000 0.832770 0.375000 Y3+
0.500000 0.167230 0.446429 Y3+
0.000000 0.332770 0.482143 Y3+
0.000000 0.667230 0.482143 Y3+
0.500000 0.832770 0.446429 Y3+
0.500000 0.167230 0.517857 Y3+
0.000000 0.332770 0.553571 Y3+
0.000000 0.667230 0.553571 Y3+
0.500000 0.832770 0.517857 Y3+
0.500000 0.167230 0.589286 Y3+
0.000000 0.332770 0.625000 Y3+
0.000000 0.667230 0.625000 Y3+
0.500000 0.832770 0.589286 Y3+
0.500000 0.167230 0.660714 Y3+
0.000000 0.332770 0.696429 Y3+
0.000000 0.667230 0.696429 Y3+
0.500000 0.832770 0.660714 Y3+
0.500000 0.167230 0.732143 Y3+
0.000000 0.332770 0.767857 Y3+
0.000000 0.667230 0.767857 Y3+
0.500000 0.832770 0.732143 Y3+
0.500000 0.419887 0.232143 Ti4+
0.000000 0.080113 0.267857 Ti4+
0.000000 0.919887 0.267857 Ti4+
0.500000 0.580113 0.232143 Ti4+
0.500000 0.419887 0.303571 Ti4+
0.000000 0.080113 0.339286 Ti4+
0.000000 0.919887 0.339286 Ti4+
0.500000 0.580113 0.303571 Ti4+
0.500000 0.419887 0.375000 Ti4+
0.000000 0.080113 0.410714 Ti4+
0.000000 0.919887 0.410714 Ti4+
0.500000 0.580113 0.375000 Ti4+
0.500000 0.419887 0.446429 Ti4+
0.000000 0.080113 0.482143 Ti4+
0.000000 0.919887 0.482143 Ti4+
0.500000 0.580113 0.446429 Ti4+
0.500000 0.419887 0.517857 Ti4+
0.000000 0.080113 0.553571 Ti4+
0.000000 0.919887 0.553571 Ti4+
0.500000 0.580113 0.517857 Ti4+
0.500000 0.419887 0.589286 Ti4+
0.000000 0.080113 0.625000 Ti4+
0.000000 0.919887 0.625000 Ti4+
0.500000 0.580113 0.589286 Ti4+
0.500000 0.419887 0.660714 Ti4+
0.000000 0.080113 0.696429 Ti4+
0.000000 0.919887 0.696429 Ti4+
0.500000 0.580113 0.660714 Ti4+
0.500000 0.419887 0.732143 Ti4+
0.000000 0.080113 0.767857 Ti4+
0.000000 0.919887 0.767857 Ti4+
0.500000 0.580113 0.732143 Ti4+
0.500000 0.294209 0.232143 S2-
0.000000 0.205791 0.267857 S2-
0.000000 0.794209 0.267857 S2-
0.500000 0.705791 0.232143 S2-
0.500000 0.294209 0.303571 S2-
0.000000 0.205791 0.339286 S2-
0.000000 0.794209 0.339286 S2-
0.500000 0.705791 0.303571 S2-
0.500000 0.294209 0.375000 S2-
0.000000 0.205791 0.410714 S2-
0.000000 0.794209 0.410714 S2-
0.500000 0.705791 0.375000 S2-
0.500000 0.294209 0.446429 S2-
0.000000 0.205791 0.482143 S2-
0.000000 0.794209 0.482143 S2-
0.500000 0.705791 0.446429 S2-
0.500000 0.294209 0.517857 S2-
0.000000 0.205791 0.553571 S2-
0.000000 0.794209 0.553571 S2-
0.500000 0.705791 0.517857 S2-
0.500000 0.294209 0.589286 S2-
0.000000 0.205791 0.625000 S2-
0.000000 0.794209 0.625000 S2-
0.500000 0.705791 0.589286 S2-
0.500000 0.294209 0.660714 S2-
0.000000 0.205791 0.696429 S2-
0.000000 0.794209 0.696429 S2-
0.500000 0.705791 0.660714 S2-
0.500000 0.294209 0.732143 S2-
0.000000 0.205791 0.767857 S2-
0.000000 0.794209 0.767857 S2-
0.500000 0.705791 0.732143 S2-
0.000000 0.000000 0.267857 O2-
0.500000 0.398876 0.267857 O2-
0.500000 0.101124 0.267857 O2-
0.000000 0.398876 0.232143 O2-
0.000000 0.101124 0.232143 O2-
0.500000 0.500000 0.232143 O2-
0.000000 0.898876 0.232143 O2-
0.000000 0.601124 0.232143 O2-
0.500000 0.898876 0.267857 O2-
0.500000 0.601124 0.267857 O2-
0.000000 0.000000 0.339286 O2-
0.500000 0.398876 0.339286 O2-
0.500000 0.101124 0.339286 O2-
0.000000 0.398876 0.303571 O2-
0.000000 0.101124 0.303571 O2-
0.500000 0.500000 0.303571 O2-
0.000000 0.898876 0.303571 O2-
0.000000 0.601124 0.303571 O2-
0.500000 0.898876 0.339286 O2-
0.500000 0.601124 0.339286 O2-
0.000000 0.000000 0.410714 O2-
0.500000 0.398876 0.410714 O2-
0.500000 0.101124 0.410714 O2-
0.000000 0.398876 0.375000 O2-
0.000000 0.101124 0.375000 O2-
0.500000 0.500000 0.375000 O2-
0.000000 0.898876 0.375000 O2-
0.000000 0.601124 0.375000 O2-
0.500000 0.898876 0.410714 O2-
0.500000 0.601124 0.410714 O2-
0.000000 0.000000 0.482143 O2-
0.500000 0.398876 0.482143 O2-
0.500000 0.101124 0.482143 O2-
0.000000 0.398876 0.446429 O2-
0.000000 0.101124 0.446429 O2-
0.500000 0.500000 0.446429 O2-
0.000000 0.898876 0.446429 O2-
0.000000 0.601124 0.446429 O2-
0.500000 0.898876 0.482143 O2-
0.500000 0.601124 0.482143 O2-
0.000000 0.000000 0.553571 O2-
0.500000 0.398876 0.553571 O2-
0.500000 0.101124 0.553571 O2-
0.000000 0.398876 0.517857 O2-
0.000000 0.101124 0.517857 O2-
0.500000 0.500000 0.517857 O2-
0.000000 0.898876 0.517857 O2-
0.000000 0.601124 0.517857 O2-
0.500000 0.898876 0.553571 O2-
0.500000 0.601124 0.553571 O2-
0.000000 0.000000 0.625000 O2-
0.500000 0.398876 0.625000 O2-
0.500000 0.101124 0.625000 O2-
0.000000 0.398876 0.589286 O2-
0.000000 0.101124 0.589286 O2-
0.500000 0.500000 0.589286 O2-
0.000000 0.898876 0.589286 O2-
0.000000 0.601124 0.589286 O2-
0.500000 0.898876 0.625000 O2-
0.500000 0.601124 0.625000 O2-
0.000000 0.000000 0.696429 O2-
0.500000 0.398876 0.696429 O2-
0.500000 0.101124 0.696429 O2-
0.000000 0.398876 0.660714 O2-
0.000000 0.101124 0.660714 O2-
0.500000 0.500000 0.660714 O2-
0.000000 0.898876 0.660714 O2-
0.000000 0.601124 0.660714 O2-
0.500000 0.898876 0.696429 O2-
0.500000 0.601124 0.696429 O2-
0.000000 0.000000 0.767857 O2-
0.500000 0.398876 0.767857 O2-
0.500000 0.101124 0.767857 O2-
0.000000 0.398876 0.732143 O2-
0.000000 0.101124 0.732143 O2-
0.500000 0.500000 0.732143 O2-
0.000000 0.898876 0.732143 O2-
0.000000 0.601124 0.732143 O2-
0.500000 0.898876 0.767857 O2-
0.500000 0.601124 0.767857 O2-
