Y12 Ti12 S12 O30
1.0
3.770023 0.000000 0.000000
-0.000000 3.770023 0.000000
0.000000 0.000000 136.221081
Y Ti S O
12 12 12 30
direct
0.500000 0.500000 0.402872 Y3+
0.000000 0.000000 0.263795 Y3+
0.000000 0.000000 0.319538 Y3+
0.500000 0.500000 0.347128 Y3+
0.500000 0.500000 0.569538 Y3+
0.000000 0.000000 0.430462 Y3+
0.000000 0.000000 0.486205 Y3+
0.500000 0.500000 0.513795 Y3+
0.500000 0.500000 0.736205 Y3+
0.000000 0.000000 0.597128 Y3+
0.000000 0.000000 0.652872 Y3+
0.500000 0.500000 0.680462 Y3+
0.500000 0.500000 0.278315 Ti4+
0.000000 0.000000 0.388352 Ti4+
0.000000 0.000000 0.361648 Ti4+
0.500000 0.500000 0.305019 Ti4+
0.500000 0.500000 0.444981 Ti4+
0.000000 0.000000 0.555019 Ti4+
0.000000 0.000000 0.528315 Ti4+
0.500000 0.500000 0.471685 Ti4+
0.500000 0.500000 0.611648 Ti4+
0.000000 0.000000 0.721685 Ti4+
0.000000 0.000000 0.694981 Ti4+
0.500000 0.500000 0.638352 Ti4+
0.500000 0.500000 0.257368 S2-
0.000000 0.000000 0.409299 S2-
0.000000 0.000000 0.340701 S2-
0.500000 0.500000 0.325965 S2-
0.500000 0.500000 0.424035 S2-
0.000000 0.000000 0.575965 S2-
0.000000 0.000000 0.507368 S2-
0.500000 0.500000 0.492632 S2-
0.500000 0.500000 0.590701 S2-
0.000000 0.000000 0.742632 S2-
0.000000 0.000000 0.674035 S2-
0.500000 0.500000 0.659299 S2-
0.000000 0.000000 0.375000 O2-
0.000000 0.500000 0.274813 O2-
0.000000 0.500000 0.391854 O2-
0.500000 0.000000 0.274813 O2-
0.500000 0.000000 0.391854 O2-
0.500000 0.500000 0.291667 O2-
0.500000 0.000000 0.358146 O2-
0.500000 0.000000 0.308521 O2-
0.000000 0.500000 0.358146 O2-
0.000000 0.500000 0.308521 O2-
0.000000 0.000000 0.541667 O2-
0.000000 0.500000 0.441479 O2-
0.000000 0.500000 0.558521 O2-
0.500000 0.000000 0.441479 O2-
0.500000 0.000000 0.558521 O2-
0.500000 0.500000 0.458333 O2-
0.500000 0.000000 0.524813 O2-
0.500000 0.000000 0.475187 O2-
0.000000 0.500000 0.524813 O2-
0.000000 0.500000 0.475187 O2-
0.000000 0.000000 0.708333 O2-
0.000000 0.500000 0.608146 O2-
0.000000 0.500000 0.725187 O2-
0.500000 0.000000 0.608146 O2-
0.500000 0.000000 0.725187 O2-
0.500000 0.500000 0.625000 O2-
0.500000 0.000000 0.691479 O2-
0.500000 0.000000 0.641854 O2-
0.000000 0.500000 0.691479 O2-
0.000000 0.500000 0.641854 O2-
