Y18 Ti18 S18 O45
1.0
3.768529 0.000000 0.106113
1.886156 11.507004 -0.014106
0.000000 0.000000 66.971407
Y Ti S O
18 18 18 45
direct
0.342061 0.325169 0.990709 Y3+
0.713495 0.619275 0.953735 Y3+
0.397616 0.269614 0.935154 Y3+
0.769050 0.563720 0.898179 Y3+
0.453172 0.214058 0.879598 Y3+
0.824606 0.508164 0.842624 Y3+
0.508727 0.158502 0.824043 Y3+
0.880161 0.452609 0.787068 Y3+
0.564283 0.102947 0.768487 Y3+
0.935717 0.397053 0.731513 Y3+
0.619839 0.047391 0.712932 Y3+
0.991273 0.341498 0.675957 Y3+
0.675394 0.991836 0.657376 Y3+
0.046828 0.285942 0.620402 Y3+
0.730950 0.936280 0.601821 Y3+
0.102384 0.230386 0.564846 Y3+
0.786505 0.880725 0.546265 Y3+
0.157939 0.174831 0.509291 Y3+
0.103440 0.816447 0.976673 Ti4+
0.952116 0.127997 0.967772 Ti4+
0.158995 0.760892 0.921117 Ti4+
0.007671 0.072442 0.912216 Ti4+
0.214551 0.705336 0.865562 Ti4+
0.063227 0.016886 0.856660 Ti4+
0.270107 0.649781 0.810006 Ti4+
0.118782 0.961331 0.801105 Ti4+
0.325662 0.594225 0.754451 Ti4+
0.174338 0.905775 0.745549 Ti4+
0.381218 0.538669 0.698895 Ti4+
0.229893 0.850219 0.689994 Ti4+
0.436773 0.483114 0.643340 Ti4+
0.285449 0.794664 0.634438 Ti4+
0.492329 0.427558 0.587784 Ti4+
0.341005 0.739108 0.578883 Ti4+
0.547884 0.372003 0.532228 Ti4+
0.396560 0.683553 0.523327 Ti4+
0.222136 0.572072 0.983655 S2-
0.833419 0.372372 0.960789 S2-
0.277692 0.516517 0.928100 S2-
0.888975 0.316817 0.905234 S2-
0.333248 0.460961 0.872544 S2-
0.944530 0.261261 0.849678 S2-
0.388803 0.405405 0.816988 S2-
0.000086 0.205706 0.794123 S2-
0.444359 0.349850 0.761433 S2-
0.055641 0.150150 0.738567 S2-
0.499914 0.294294 0.705877 S2-
0.111197 0.094595 0.683012 S2-
0.555470 0.238739 0.650322 S2-
0.166752 0.039039 0.627456 S2-
0.611025 0.183183 0.594766 S2-
0.222308 0.983483 0.571900 S2-
0.666581 0.127628 0.539211 S2-
0.277864 0.927928 0.516345 S2-
0.027778 0.972222 0.972222 O2-
0.151061 0.747815 0.950062 O2-
0.432272 0.168852 0.966604 O2-
0.623284 0.775593 0.977840 O2-
0.904494 0.196630 0.994382 O2-
0.083333 0.916667 0.916667 O2-
0.206617 0.692259 0.894507 O2-
0.487828 0.113296 0.911049 O2-
0.678839 0.720037 0.922285 O2-
0.960050 0.141074 0.938826 O2-
0.138889 0.861111 0.861111 O2-
0.262172 0.636704 0.838951 O2-
0.543383 0.057741 0.855493 O2-
0.734395 0.664482 0.866729 O2-
0.015605 0.085518 0.883271 O2-
0.194444 0.805556 0.805556 O2-
0.317728 0.581148 0.783396 O2-
0.598939 0.002185 0.799938 O2-
0.789950 0.608926 0.811174 O2-
0.071161 0.029963 0.827715 O2-
0.250000 0.750000 0.750000 O2-
0.373284 0.525593 0.727840 O2-
0.654494 0.946630 0.744382 O2-
0.845506 0.553370 0.755618 O2-
0.126716 0.974407 0.772160 O2-
0.305556 0.694444 0.694444 O2-
0.428839 0.470037 0.672285 O2-
0.710050 0.891074 0.688826 O2-
0.901061 0.497815 0.700062 O2-
0.182272 0.918852 0.716604 O2-
0.361111 0.638889 0.638889 O2-
0.484395 0.414482 0.616729 O2-
0.765605 0.835518 0.633271 O2-
0.956617 0.442259 0.644507 O2-
0.237828 0.863296 0.661049 O2-
0.416667 0.583333 0.583333 O2-
0.539950 0.358926 0.561174 O2-
0.821161 0.779963 0.577715 O2-
0.012172 0.386704 0.588951 O2-
0.293383 0.807741 0.605493 O2-
0.472222 0.527778 0.527778 O2-
0.595506 0.303370 0.505618 O2-
0.876716 0.724407 0.522160 O2-
0.067728 0.331148 0.533396 O2-
0.348939 0.752185 0.549938 O2-
