Y4 Ti4 S4 O10                           
   1.00000000000000     
     3.7700229987365135    0.0000000000000000    0.0000000000000000
    -0.0000000000000000    3.7700229987365135   -0.0000000000000000
    -0.0000000000000000   -0.0000000000000000   22.7035134547361430
   Y    Ti   S    O 
     4     4     4    10
Direct
  0.5000000000000000  0.5000000000000000  0.1672298106880026
 -0.0000000000000000  0.0000000000000000  0.3327701893119976
 -0.0000000000000000  0.0000000000000000  0.6672298106880018
  0.5000000000000000  0.5000000000000000  0.8327701893119982
  0.5000000000000000  0.5000000000000000  0.4198871598096985
  0.0000000000000000 -0.0000000000000000  0.0801128401903018
 -0.0000000000000000 -0.0000000000000000  0.9198871598096988
  0.5000000000000000  0.5000000000000000  0.5801128401903012
  0.5000000000000000  0.5000000000000000  0.2942085203304878
 -0.0000000000000000  0.0000000000000000  0.2057914796695119
 -0.0000000000000000 -0.0000000000000000  0.7942085203304886
  0.5000000000000000  0.5000000000000000  0.7057914796695114
  0.0000000000000000 -0.0000000000000000 -0.0000000000000000
 -0.0000000000000000  0.5000000000000000  0.3988762177889797
 -0.0000000000000000  0.5000000000000000  0.1011237822110205
  0.5000000000000000 -0.0000000000000000  0.3988762177889797
  0.5000000000000000  0.0000000000000000  0.1011237822110205
  0.5000000000000000  0.5000000000000000  0.5000000000000000
  0.5000000000000000  0.0000000000000000  0.8988762177889795
  0.5000000000000000 -0.0000000000000000  0.6011237822110205
  0.0000000000000000  0.5000000000000000  0.8988762177889795
  0.0000000000000000  0.5000000000000000  0.6011237822110205
 
  0.00000000E+00  0.00000000E+00  0.00000000E+00
  0.00000000E+00  0.00000000E+00  0.00000000E+00
  0.00000000E+00  0.00000000E+00  0.00000000E+00
  0.00000000E+00  0.00000000E+00  0.00000000E+00
  0.00000000E+00  0.00000000E+00  0.00000000E+00
  0.00000000E+00  0.00000000E+00  0.00000000E+00
  0.00000000E+00  0.00000000E+00  0.00000000E+00
  0.00000000E+00  0.00000000E+00  0.00000000E+00
  0.00000000E+00  0.00000000E+00  0.00000000E+00
  0.00000000E+00  0.00000000E+00  0.00000000E+00
  0.00000000E+00  0.00000000E+00  0.00000000E+00
  0.00000000E+00  0.00000000E+00  0.00000000E+00
  0.00000000E+00  0.00000000E+00  0.00000000E+00
  0.00000000E+00  0.00000000E+00  0.00000000E+00
  0.00000000E+00  0.00000000E+00  0.00000000E+00
  0.00000000E+00  0.00000000E+00  0.00000000E+00
  0.00000000E+00  0.00000000E+00  0.00000000E+00
  0.00000000E+00  0.00000000E+00  0.00000000E+00
  0.00000000E+00  0.00000000E+00  0.00000000E+00
  0.00000000E+00  0.00000000E+00  0.00000000E+00
  0.00000000E+00  0.00000000E+00  0.00000000E+00
  0.00000000E+00  0.00000000E+00  0.00000000E+00
