Sn24 O48                                
   1.00000000000000     
     3.2161689999999998    0.0000000000000000    0.0000000000000000
     0.0000000000000000    6.7497049999999996    0.0000000000000000
     0.0000000000000000    0.0000000000000000   60.7473430000000008
   Sn   O 
    24    48
Direct
  0.0000000000000000  0.7500000000000000  0.1967431059506224
  0.5000000000000000  0.2500000000000000  0.1913392253348681
 -0.0000000000000000  0.2500000000000000  0.2489551910499818
  0.5000000000000000  0.7500000000000000  0.2516165713375944
  0.0000000000000000  0.7500000000000000  0.3064911697973323
  0.5000000000000000  0.2500000000000000  0.3051010443621385
 -0.0000000000000000  0.2500000000000000  0.3609055632108714
  0.5000000000000000  0.7500000000000000  0.3616741101302862
  0.0000000000000000  0.7500000000000000  0.4170106651229183
  0.5000000000000000  0.2500000000000000  0.4165503462208149
  0.0000000000000000  0.2500000000000000  0.4720887447892742
  0.5000000000000000  0.7500000000000000  0.4724247628503374
 -0.0000000000000000  0.7500000000000000  0.5279112552107267
  0.5000000000000000  0.2500000000000000  0.5275752371496624
 -0.0000000000000000  0.2500000000000000  0.5829893348770820
  0.5000000000000000  0.7500000000000000  0.5834496537791850
  0.0000000000000000  0.7500000000000000  0.6390944367891291
  0.5000000000000000  0.2500000000000000  0.6383258898697148
 -0.0000000000000000  0.2500000000000000  0.6935088302026672
  0.5000000000000000  0.7500000000000000  0.6948989556378609
 -0.0000000000000000  0.7500000000000000  0.7510448089500187
  0.5000000000000000  0.2500000000000000  0.7483834286624070
  0.0000000000000000  0.2500000000000000  0.8032568940493765
  0.5000000000000000  0.7500000000000000  0.8086607746651308
 -0.0000000000000000  0.2500000000000000  0.2152758315604889
 -0.0000000000000000  0.2500000000000000  0.1719553129465459
  0.5000000000000000  0.9354005442347190  0.1920527785483483
  0.5000000000000000  0.5645994557652810  0.1920527785483483
 -0.0000000000000000  0.7500000000000000  0.2725315183532256
 -0.0000000000000000  0.7500000000000000  0.2296464332032689
  0.5000000000000000  0.4458001047381882  0.2501502831498827
  0.5000000000000000  0.0541998952618122  0.2501502831498827
  0.0000000000000000  0.2500000000000000  0.3268462382663908
 -0.0000000000000000  0.2500000000000000  0.2835372909260638
  0.5000000000000000  0.9434621100608284  0.3059800797306874
  0.5000000000000000  0.5565378899391716  0.3059800797306874
 -0.0000000000000000  0.7500000000000000  0.3830525828769185
 -0.0000000000000000  0.7500000000000000  0.3402167062044897
  0.5000000000000000  0.4438701572621622  0.3611857425421406
  0.5000000000000000  0.0561298427378377  0.3611857425421406
 -0.0000000000000000  0.2500000000000000  0.4381083662213391
  0.0000000000000000  0.2500000000000000  0.3950343617579868
  0.5000000000000000  0.9437488713583020  0.4168402277005392
  0.5000000000000000  0.5562511286416980  0.4168402277005392
 -0.0000000000000000  0.7500000000000000  0.4938972033000129
 -0.0000000000000000  0.7500000000000000  0.4509211311722204
  0.5000000000000000  0.4438028604480102  0.4722088611848870
  0.5000000000000000  0.0561971395519898  0.4722088611848870
 -0.0000000000000000  0.2500000000000000  0.5490788688277799
  0.0000000000000000  0.2500000000000000  0.5061027966999855
  0.5000000000000000  0.9438028604480113  0.5277911388151139
  0.5000000000000000  0.5561971395519887  0.5277911388151139
 -0.0000000000000000  0.7500000000000000  0.6049656382420140
  0.0000000000000000  0.7500000000000000  0.5618916337786604
  0.5000000000000000  0.4437488713583028  0.5831597722994621
  0.5000000000000000  0.0562511286416974  0.5831597722994621
  0.0000000000000000  0.2500000000000000  0.6597832937955105
  0.0000000000000000  0.2500000000000000  0.6169474171230820
  0.5000000000000000  0.9438701572621609  0.6388142574578582
  0.5000000000000000  0.5561298427378391  0.6388142574578582
 -0.0000000000000000  0.7500000000000000  0.7164627090739358
 -0.0000000000000000  0.7500000000000000  0.6731537617336093
  0.5000000000000000  0.4434621100608285  0.6940199202693134
  0.5000000000000000  0.0565378899391718  0.6940199202693134
  0.0000000000000000  0.2500000000000000  0.7703535667967305
 -0.0000000000000000  0.2500000000000000  0.7274684816467751
  0.5000000000000000  0.9458001047381883  0.7498497168501165
  0.5000000000000000  0.5541998952618117  0.7498497168501165
 -0.0000000000000000  0.7500000000000000  0.8280446870534548
  0.0000000000000000  0.7500000000000000  0.7847241684395104
  0.5000000000000000  0.4354005442347202  0.8079472214516528
  0.5000000000000000  0.0645994557652802  0.8079472214516528
 
  0.00000000E+00  0.00000000E+00  0.00000000E+00
  0.00000000E+00  0.00000000E+00  0.00000000E+00
  0.00000000E+00  0.00000000E+00  0.00000000E+00
  0.00000000E+00  0.00000000E+00  0.00000000E+00
  0.00000000E+00  0.00000000E+00  0.00000000E+00
  0.00000000E+00  0.00000000E+00  0.00000000E+00
  0.00000000E+00  0.00000000E+00  0.00000000E+00
  0.00000000E+00  0.00000000E+00  0.00000000E+00
  0.00000000E+00  0.00000000E+00  0.00000000E+00
  0.00000000E+00  0.00000000E+00  0.00000000E+00
  0.00000000E+00  0.00000000E+00  0.00000000E+00
  0.00000000E+00  0.00000000E+00  0.00000000E+00
  0.00000000E+00  0.00000000E+00  0.00000000E+00
  0.00000000E+00  0.00000000E+00  0.00000000E+00
  0.00000000E+00  0.00000000E+00  0.00000000E+00
  0.00000000E+00  0.00000000E+00  0.00000000E+00
  0.00000000E+00  0.00000000E+00  0.00000000E+00
  0.00000000E+00  0.00000000E+00  0.00000000E+00
  0.00000000E+00  0.00000000E+00  0.00000000E+00
  0.00000000E+00  0.00000000E+00  0.00000000E+00
  0.00000000E+00  0.00000000E+00  0.00000000E+00
  0.00000000E+00  0.00000000E+00  0.00000000E+00
  0.00000000E+00  0.00000000E+00  0.00000000E+00
  0.00000000E+00  0.00000000E+00  0.00000000E+00
  0.00000000E+00  0.00000000E+00  0.00000000E+00
  0.00000000E+00  0.00000000E+00  0.00000000E+00
  0.00000000E+00  0.00000000E+00  0.00000000E+00
  0.00000000E+00  0.00000000E+00  0.00000000E+00
  0.00000000E+00  0.00000000E+00  0.00000000E+00
  0.00000000E+00  0.00000000E+00  0.00000000E+00
  0.00000000E+00  0.00000000E+00  0.00000000E+00
  0.00000000E+00  0.00000000E+00  0.00000000E+00
  0.00000000E+00  0.00000000E+00  0.00000000E+00
  0.00000000E+00  0.00000000E+00  0.00000000E+00
  0.00000000E+00  0.00000000E+00  0.00000000E+00
  0.00000000E+00  0.00000000E+00  0.00000000E+00
  0.00000000E+00  0.00000000E+00  0.00000000E+00
  0.00000000E+00  0.00000000E+00  0.00000000E+00
  0.00000000E+00  0.00000000E+00  0.00000000E+00
  0.00000000E+00  0.00000000E+00  0.00000000E+00
  0.00000000E+00  0.00000000E+00  0.00000000E+00
  0.00000000E+00  0.00000000E+00  0.00000000E+00
  0.00000000E+00  0.00000000E+00  0.00000000E+00
  0.00000000E+00  0.00000000E+00  0.00000000E+00
  0.00000000E+00  0.00000000E+00  0.00000000E+00
  0.00000000E+00  0.00000000E+00  0.00000000E+00
  0.00000000E+00  0.00000000E+00  0.00000000E+00
  0.00000000E+00  0.00000000E+00  0.00000000E+00
  0.00000000E+00  0.00000000E+00  0.00000000E+00
  0.00000000E+00  0.00000000E+00  0.00000000E+00
  0.00000000E+00  0.00000000E+00  0.00000000E+00
  0.00000000E+00  0.00000000E+00  0.00000000E+00
  0.00000000E+00  0.00000000E+00  0.00000000E+00
  0.00000000E+00  0.00000000E+00  0.00000000E+00
  0.00000000E+00  0.00000000E+00  0.00000000E+00
  0.00000000E+00  0.00000000E+00  0.00000000E+00
  0.00000000E+00  0.00000000E+00  0.00000000E+00
  0.00000000E+00  0.00000000E+00  0.00000000E+00
  0.00000000E+00  0.00000000E+00  0.00000000E+00
  0.00000000E+00  0.00000000E+00  0.00000000E+00
  0.00000000E+00  0.00000000E+00  0.00000000E+00
  0.00000000E+00  0.00000000E+00  0.00000000E+00
  0.00000000E+00  0.00000000E+00  0.00000000E+00
  0.00000000E+00  0.00000000E+00  0.00000000E+00
  0.00000000E+00  0.00000000E+00  0.00000000E+00
  0.00000000E+00  0.00000000E+00  0.00000000E+00
  0.00000000E+00  0.00000000E+00  0.00000000E+00
  0.00000000E+00  0.00000000E+00  0.00000000E+00
  0.00000000E+00  0.00000000E+00  0.00000000E+00
  0.00000000E+00  0.00000000E+00  0.00000000E+00
  0.00000000E+00  0.00000000E+00  0.00000000E+00
  0.00000000E+00  0.00000000E+00  0.00000000E+00
