Y4 Ti4 S4 O10
1.0
3.770023 0.000000 0.000000
-0.000000 3.770023 0.000000
0.000000 0.000000 45.407027
Y Ti S O
4 4 4 10
direct
0.500000 0.500000 0.708615 Y3+
0.000000 0.000000 0.291385 Y3+
0.000000 0.000000 0.458615 Y3+
0.500000 0.500000 0.541385 Y3+
0.500000 0.500000 0.334944 Ti4+
0.000000 0.000000 0.665056 Ti4+
0.000000 0.000000 0.584944 Ti4+
0.500000 0.500000 0.415056 Ti4+
0.500000 0.500000 0.272104 S2-
0.000000 0.000000 0.727896 S2-
0.000000 0.000000 0.522104 S2-
0.500000 0.500000 0.477896 S2-
0.000000 0.000000 0.625000 O2-
0.000000 0.500000 0.324438 O2-
0.000000 0.500000 0.675562 O2-
0.500000 0.000000 0.324438 O2-
0.500000 0.000000 0.675562 O2-
0.500000 0.500000 0.375000 O2-
0.500000 0.000000 0.574438 O2-
0.500000 0.000000 0.425562 O2-
0.000000 0.500000 0.574438 O2-
0.000000 0.500000 0.425562 O2-
