Y4 Ti4 S4 O10
1.0
3.770023 0.000000 0.000000
-0.000000 3.770023 0.000000
0.000000 0.000000 68.110540
Y Ti S O
4 4 4 10
direct
0.500000 0.500000 0.639077 Y3+
0.000000 0.000000 0.360923 Y3+
0.000000 0.000000 0.472410 Y3+
0.500000 0.500000 0.527590 Y3+
0.500000 0.500000 0.389962 Ti4+
0.000000 0.000000 0.610038 Ti4+
0.000000 0.000000 0.556629 Ti4+
0.500000 0.500000 0.443371 Ti4+
0.500000 0.500000 0.348070 S2-
0.000000 0.000000 0.651930 S2-
0.000000 0.000000 0.514736 S2-
0.500000 0.500000 0.485264 S2-
0.000000 0.000000 0.583333 O2-
0.000000 0.500000 0.382959 O2-
0.000000 0.500000 0.617041 O2-
0.500000 0.000000 0.382959 O2-
0.500000 0.000000 0.617041 O2-
0.500000 0.500000 0.416667 O2-
0.500000 0.000000 0.549625 O2-
0.500000 0.000000 0.450375 O2-
0.000000 0.500000 0.549625 O2-
0.000000 0.500000 0.450375 O2-
