pymatgen with grid density = 507 / number of atoms
0
Gamma
7 7 1
