pymatgen v2020.12.31 with grid density = 870 / number of atoms
0
Gamma
7 1 1
