pymatgen with grid density = 761 / number of atoms
0
Gamma
7 7 1
