Y24 Ti24 S24 O60
1.0
3.770023 0.000000 0.000000
-0.000000 22.703513 0.000000
0.000000 0.000000 45.240276
Y Ti S O
24 24 24 60
direct
0.500000 0.167230 0.020833 Y3+
0.000000 0.332770 0.062500 Y3+
0.000000 0.667230 0.062500 Y3+
0.500000 0.832770 0.020833 Y3+
0.500000 0.167230 0.104167 Y3+
0.000000 0.332770 0.145833 Y3+
0.000000 0.667230 0.145833 Y3+
0.500000 0.832770 0.104167 Y3+
0.500000 0.167230 0.187500 Y3+
0.000000 0.332770 0.229167 Y3+
0.000000 0.667230 0.229167 Y3+
0.500000 0.832770 0.187500 Y3+
0.500000 0.167230 0.270833 Y3+
0.000000 0.332770 0.312500 Y3+
0.000000 0.667230 0.312500 Y3+
0.500000 0.832770 0.270833 Y3+
0.500000 0.167230 0.354167 Y3+
0.000000 0.332770 0.395833 Y3+
0.000000 0.667230 0.395833 Y3+
0.500000 0.832770 0.354167 Y3+
0.500000 0.167230 0.437500 Y3+
0.000000 0.332770 0.479167 Y3+
0.000000 0.667230 0.479167 Y3+
0.500000 0.832770 0.437500 Y3+
0.500000 0.419887 0.020833 Ti4+
0.000000 0.080113 0.062500 Ti4+
0.000000 0.919887 0.062500 Ti4+
0.500000 0.580113 0.020833 Ti4+
0.500000 0.419887 0.104167 Ti4+
0.000000 0.080113 0.145833 Ti4+
0.000000 0.919887 0.145833 Ti4+
0.500000 0.580113 0.104167 Ti4+
0.500000 0.419887 0.187500 Ti4+
0.000000 0.080113 0.229167 Ti4+
0.000000 0.919887 0.229167 Ti4+
0.500000 0.580113 0.187500 Ti4+
0.500000 0.419887 0.270833 Ti4+
0.000000 0.080113 0.312500 Ti4+
0.000000 0.919887 0.312500 Ti4+
0.500000 0.580113 0.270833 Ti4+
0.500000 0.419887 0.354167 Ti4+
0.000000 0.080113 0.395833 Ti4+
0.000000 0.919887 0.395833 Ti4+
0.500000 0.580113 0.354167 Ti4+
0.500000 0.419887 0.437500 Ti4+
0.000000 0.080113 0.479167 Ti4+
0.000000 0.919887 0.479167 Ti4+
0.500000 0.580113 0.437500 Ti4+
0.500000 0.294209 0.020833 S2-
0.000000 0.205791 0.062500 S2-
0.000000 0.794209 0.062500 S2-
0.500000 0.705791 0.020833 S2-
0.500000 0.294209 0.104167 S2-
0.000000 0.205791 0.145833 S2-
0.000000 0.794209 0.145833 S2-
0.500000 0.705791 0.104167 S2-
0.500000 0.294209 0.187500 S2-
0.000000 0.205791 0.229167 S2-
0.000000 0.794209 0.229167 S2-
0.500000 0.705791 0.187500 S2-
0.500000 0.294209 0.270833 S2-
0.000000 0.205791 0.312500 S2-
0.000000 0.794209 0.312500 S2-
0.500000 0.705791 0.270833 S2-
0.500000 0.294209 0.354167 S2-
0.000000 0.205791 0.395833 S2-
0.000000 0.794209 0.395833 S2-
0.500000 0.705791 0.354167 S2-
0.500000 0.294209 0.437500 S2-
0.000000 0.205791 0.479167 S2-
0.000000 0.794209 0.479167 S2-
0.500000 0.705791 0.437500 S2-
0.000000 0.000000 0.062500 O2-
0.500000 0.398876 0.062500 O2-
0.500000 0.101124 0.062500 O2-
0.000000 0.398876 0.020833 O2-
0.000000 0.101124 0.020833 O2-
0.500000 0.500000 0.020833 O2-
0.000000 0.898876 0.020833 O2-
0.000000 0.601124 0.020833 O2-
0.500000 0.898876 0.062500 O2-
0.500000 0.601124 0.062500 O2-
0.000000 0.000000 0.145833 O2-
0.500000 0.398876 0.145833 O2-
0.500000 0.101124 0.145833 O2-
0.000000 0.398876 0.104167 O2-
0.000000 0.101124 0.104167 O2-
0.500000 0.500000 0.104167 O2-
0.000000 0.898876 0.104167 O2-
0.000000 0.601124 0.104167 O2-
0.500000 0.898876 0.145833 O2-
0.500000 0.601124 0.145833 O2-
0.000000 0.000000 0.229167 O2-
0.500000 0.398876 0.229167 O2-
0.500000 0.101124 0.229167 O2-
0.000000 0.398876 0.187500 O2-
0.000000 0.101124 0.187500 O2-
0.500000 0.500000 0.187500 O2-
0.000000 0.898876 0.187500 O2-
0.000000 0.601124 0.187500 O2-
0.500000 0.898876 0.229167 O2-
0.500000 0.601124 0.229167 O2-
0.000000 0.000000 0.312500 O2-
0.500000 0.398876 0.312500 O2-
0.500000 0.101124 0.312500 O2-
0.000000 0.398876 0.270833 O2-
0.000000 0.101124 0.270833 O2-
0.500000 0.500000 0.270833 O2-
0.000000 0.898876 0.270833 O2-
0.000000 0.601124 0.270833 O2-
0.500000 0.898876 0.312500 O2-
0.500000 0.601124 0.312500 O2-
0.000000 0.000000 0.395833 O2-
0.500000 0.398876 0.395833 O2-
0.500000 0.101124 0.395833 O2-
0.000000 0.398876 0.354167 O2-
0.000000 0.101124 0.354167 O2-
0.500000 0.500000 0.354167 O2-
0.000000 0.898876 0.354167 O2-
0.000000 0.601124 0.354167 O2-
0.500000 0.898876 0.395833 O2-
0.500000 0.601124 0.395833 O2-
0.000000 0.000000 0.479167 O2-
0.500000 0.398876 0.479167 O2-
0.500000 0.101124 0.479167 O2-
0.000000 0.398876 0.437500 O2-
0.000000 0.101124 0.437500 O2-
0.500000 0.500000 0.437500 O2-
0.000000 0.898876 0.437500 O2-
0.000000 0.601124 0.437500 O2-
0.500000 0.898876 0.479167 O2-
0.500000 0.601124 0.479167 O2-
