Y18 Ti18 S18 O45
1.0
3.768529 0.000000 0.106113
1.886156 11.507004 -0.014106
0.000000 0.000000 66.971407
Y Ti S O
18 18 18 45
direct
0.592061 0.075169 0.740709 Y3+
0.963495 0.369275 0.703735 Y3+
0.647616 0.019614 0.685154 Y3+
0.019050 0.313720 0.648179 Y3+
0.703172 0.964058 0.629598 Y3+
0.074606 0.258164 0.592624 Y3+
0.758727 0.908502 0.574043 Y3+
0.130161 0.202609 0.537068 Y3+
0.814283 0.852947 0.518487 Y3+
0.185717 0.147053 0.481513 Y3+
0.869839 0.797391 0.462932 Y3+
0.241273 0.091498 0.425957 Y3+
0.925394 0.741836 0.407376 Y3+
0.296828 0.035942 0.370402 Y3+
0.980950 0.686280 0.351821 Y3+
0.352384 0.980386 0.314846 Y3+
0.036505 0.630725 0.296265 Y3+
0.407939 0.924831 0.259291 Y3+
0.353440 0.566447 0.726673 Ti4+
0.202116 0.877997 0.717772 Ti4+
0.408995 0.510892 0.671117 Ti4+
0.257671 0.822442 0.662216 Ti4+
0.464551 0.455336 0.615562 Ti4+
0.313227 0.766886 0.606660 Ti4+
0.520107 0.399781 0.560006 Ti4+
0.368782 0.711331 0.551105 Ti4+
0.575662 0.344225 0.504451 Ti4+
0.424338 0.655775 0.495549 Ti4+
0.631218 0.288669 0.448895 Ti4+
0.479893 0.600219 0.439994 Ti4+
0.686773 0.233114 0.393340 Ti4+
0.535449 0.544664 0.384438 Ti4+
0.742329 0.177558 0.337784 Ti4+
0.591005 0.489108 0.328883 Ti4+
0.797884 0.122003 0.282228 Ti4+
0.646560 0.433553 0.273327 Ti4+
0.472136 0.322072 0.733655 S2-
0.083419 0.122372 0.710789 S2-
0.527692 0.266517 0.678100 S2-
0.138975 0.066817 0.655234 S2-
0.583248 0.210961 0.622544 S2-
0.194530 0.011261 0.599678 S2-
0.638803 0.155405 0.566988 S2-
0.250086 0.955706 0.544123 S2-
0.694359 0.099850 0.511433 S2-
0.305641 0.900150 0.488567 S2-
0.749914 0.044294 0.455877 S2-
0.361197 0.844595 0.433012 S2-
0.805470 0.988739 0.400322 S2-
0.416752 0.789039 0.377456 S2-
0.861025 0.933183 0.344766 S2-
0.472308 0.733483 0.321900 S2-
0.916581 0.877628 0.289211 S2-
0.527864 0.677928 0.266345 S2-
0.277778 0.722222 0.722222 O2-
0.401061 0.497815 0.700062 O2-
0.682272 0.918852 0.716604 O2-
0.873284 0.525593 0.727840 O2-
0.154494 0.946630 0.744382 O2-
0.333333 0.666667 0.666667 O2-
0.456617 0.442259 0.644507 O2-
0.737828 0.863296 0.661049 O2-
0.928839 0.470037 0.672285 O2-
0.210050 0.891074 0.688826 O2-
0.388889 0.611111 0.611111 O2-
0.512172 0.386704 0.588951 O2-
0.793383 0.807741 0.605493 O2-
0.984395 0.414482 0.616729 O2-
0.265605 0.835518 0.633271 O2-
0.444444 0.555556 0.555556 O2-
0.567728 0.331148 0.533396 O2-
0.848939 0.752185 0.549938 O2-
0.039950 0.358926 0.561174 O2-
0.321161 0.779963 0.577715 O2-
0.500000 0.500000 0.500000 O2-
0.623284 0.275593 0.477840 O2-
0.904494 0.696630 0.494382 O2-
0.095506 0.303370 0.505618 O2-
0.376716 0.724407 0.522160 O2-
0.555556 0.444444 0.444444 O2-
0.678839 0.220037 0.422285 O2-
0.960050 0.641074 0.438826 O2-
0.151061 0.247815 0.450062 O2-
0.432272 0.668852 0.466604 O2-
0.611111 0.388889 0.388889 O2-
0.734395 0.164482 0.366729 O2-
0.015605 0.585518 0.383271 O2-
0.206617 0.192259 0.394507 O2-
0.487828 0.613296 0.411049 O2-
0.666667 0.333333 0.333333 O2-
0.789950 0.108926 0.311174 O2-
0.071161 0.529963 0.327715 O2-
0.262172 0.136704 0.338951 O2-
0.543383 0.557741 0.355493 O2-
0.722222 0.277778 0.277778 O2-
0.845506 0.053370 0.255618 O2-
0.126716 0.474407 0.272160 O2-
0.317728 0.081148 0.283396 O2-
0.598939 0.502185 0.299938 O2-
