Y4 Ti4 S4 O10
1.0
3.770023 0.000000 0.000000
-0.000000 3.770023 0.000000
0.000000 0.000000 90.814054
Y Ti S O
4 4 4 10
direct
0.500000 0.500000 0.604307 Y3+
0.000000 0.000000 0.395693 Y3+
0.000000 0.000000 0.479307 Y3+
0.500000 0.500000 0.520693 Y3+
0.500000 0.500000 0.417472 Ti4+
0.000000 0.000000 0.582528 Ti4+
0.000000 0.000000 0.542472 Ti4+
0.500000 0.500000 0.457528 Ti4+
0.500000 0.500000 0.386052 S2-
0.000000 0.000000 0.613948 S2-
0.000000 0.000000 0.511052 S2-
0.500000 0.500000 0.488948 S2-
0.000000 0.000000 0.562500 O2-
0.000000 0.500000 0.412219 O2-
0.000000 0.500000 0.587781 O2-
0.500000 0.000000 0.412219 O2-
0.500000 0.000000 0.587781 O2-
0.500000 0.500000 0.437500 O2-
0.500000 0.000000 0.537219 O2-
0.500000 0.000000 0.462781 O2-
0.000000 0.500000 0.537219 O2-
0.000000 0.500000 0.462781 O2-
