Sn24 O48                                
   1.00000000000000     
     4.7727620000000002    0.0000000000000000    0.0000000000000000
     0.0000000000000000    5.7532379999999996    0.1524870000000000
     0.0000000000000000    0.0000000000000000   53.3612899999999968
   Sn   O 
    24    48
Direct
 -0.0408586868353641  0.1412442005316689  0.2256418997072814
  0.5408586868353642  0.6412442005316686  0.2256418997072814
  0.0084532738555286  0.4534451569678086  0.2747477297396627
  0.4915467261444708  0.9534451569678075  0.2747477297396627
 -0.0029604238438541  0.7505873739657126  0.3250321156219190
  0.5029604238438545  0.2505873739657130  0.3250321156219190
  0.0006159805784145  0.0506872048409687  0.3749836760928091
  0.4993840194215851  0.5506872048409680  0.3749836760928091
 -0.0002244034552958  0.3501805578234463  0.4250058618611069
  0.5002244034552953  0.8501805578234470  0.4250058618611069
  0.0000555039101809  0.6500524591400283  0.4750023104971480
  0.4999444960898191  0.1500524591400277  0.4750023104971480
 -0.0000555039101809  0.9499475408599731  0.5249976895028521
  0.5000555039101804  0.4499475408599732  0.5249976895028521
  0.0002244034552958  0.2498194421765552  0.5749941381388939
  0.4997755965447040  0.7498194421765544  0.5749941381388939
 -0.0006159805784145  0.5493127951590263  0.6250163239071915
  0.5006159805784147  0.0493127951590256  0.6250163239071915
  0.0029604238438541  0.8494126260342888  0.6749678843780814
  0.4970395761561460  0.3494126260342885  0.6749678843780814
 -0.0084532738555286  0.1465548430321936  0.7252522702603367
  0.5084532738555287  0.6465548430321939  0.7252522702603367
  0.0408586868353641  0.4587557994683327  0.7743581002927179
  0.4591413131646358  0.9587557994683328  0.7743581002927179
  0.3102290263046277  0.9356990989970091  0.2386365295267917
  0.6830268400185069  0.3615936701592476  0.2088541612628021
  0.8169731599814931  0.8615936701592471  0.2088541612628021
  0.1897709736953726  0.4356990989970081  0.2386365295267917
  0.3088281874330275  0.2402877831871056  0.2901642484676665
  0.6929067538593799  0.6647556164795435  0.2610558484451699
  0.8070932461406201  0.1647556164795439  0.2610558484451699
  0.1911718125669723  0.7402877831871058  0.2901642484676665
  0.3080628374053206  0.5373918557181647  0.3401402460599333
  0.6881471894050656  0.9626380432960195  0.3096959641353442
  0.8118528105949344  0.4626380432960198  0.3096959641353442
  0.1919371625946797  0.0373918557181647  0.3401402460599333
  0.3066117366586526  0.8364276307202645  0.3902970992156380
  0.6931771280138919  0.2645883028605944  0.3598044441085402
  0.8068228719861081  0.7645883028605948  0.3598044441085402
  0.1933882633413468  0.3364276307202655  0.3902970992156380
  0.3064412202694635  0.1358728166621400  0.4403016722579480
  0.6932343644105069  0.5643767215278536  0.4096978664687858
  0.8067656355894931  0.0643767215278540  0.4096978664687858
  0.1935587797305362  0.6358728166621396  0.4403016722579480
  0.3063026338735679  0.4356661039323682  0.4903100754100425
  0.6936398348333292  0.8643887887669888  0.4597044374224321
  0.8063601651666708  0.3643887887669887  0.4597044374224321
  0.1936973661264314  0.9356661039323686  0.4903100754100425
  0.3063601651666707  0.7356112112330127  0.5402955625775667
  0.6936973661264321  0.1643338960676334  0.5096899245899578
  0.8063026338735679  0.6643338960676328  0.5096899245899578
  0.1936398348333299  0.2356112112330129  0.5402955625775667
  0.3067656355894942  0.0356232784721474  0.5903021335312133
  0.6935587797305367  0.4641271833378615  0.5596983277420500
  0.8064412202694633  0.9641271833378618  0.5596983277420500
  0.1932343644105063  0.5356232784721479  0.5903021335312133
  0.3068228719861077  0.3354116971393999  0.6401955558914593
  0.6933882633413474  0.7635723692797298  0.6097029007843618
  0.8066117366586526  0.2635723692797288  0.6097029007843618
  0.1931771280138922  0.8354116971393996  0.6401955558914593
  0.3118528105949344  0.6373619567039819  0.6903040358646563
  0.6919371625946797  0.0626081442818368  0.6598597539400658
  0.8080628374053203  0.5626081442818367  0.6598597539400658
  0.1881471894050650  0.1373619567039813  0.6903040358646563
  0.3070932461406186  0.9352443835204579  0.7389441515548308
  0.6911718125669746  0.3597122168128964  0.7098357515323332
  0.8088281874330254  0.8597122168128957  0.7098357515323332
  0.1929067538593807  0.4352443835204579  0.7389441515548308
  0.3169731599814925  0.2384063298407537  0.7911458387371973
  0.6897709736953722  0.6643009010029923  0.7613634704732080
  0.8102290263046278  0.1643009010029929  0.7613634704732080
  0.1830268400185078  0.7384063298407543  0.7911458387371973
 
  0.00000000E+00  0.00000000E+00  0.00000000E+00
  0.00000000E+00  0.00000000E+00  0.00000000E+00
  0.00000000E+00  0.00000000E+00  0.00000000E+00
  0.00000000E+00  0.00000000E+00  0.00000000E+00
  0.00000000E+00  0.00000000E+00  0.00000000E+00
  0.00000000E+00  0.00000000E+00  0.00000000E+00
  0.00000000E+00  0.00000000E+00  0.00000000E+00
  0.00000000E+00  0.00000000E+00  0.00000000E+00
  0.00000000E+00  0.00000000E+00  0.00000000E+00
  0.00000000E+00  0.00000000E+00  0.00000000E+00
  0.00000000E+00  0.00000000E+00  0.00000000E+00
  0.00000000E+00  0.00000000E+00  0.00000000E+00
  0.00000000E+00  0.00000000E+00  0.00000000E+00
  0.00000000E+00  0.00000000E+00  0.00000000E+00
  0.00000000E+00  0.00000000E+00  0.00000000E+00
  0.00000000E+00  0.00000000E+00  0.00000000E+00
  0.00000000E+00  0.00000000E+00  0.00000000E+00
  0.00000000E+00  0.00000000E+00  0.00000000E+00
  0.00000000E+00  0.00000000E+00  0.00000000E+00
  0.00000000E+00  0.00000000E+00  0.00000000E+00
  0.00000000E+00  0.00000000E+00  0.00000000E+00
  0.00000000E+00  0.00000000E+00  0.00000000E+00
  0.00000000E+00  0.00000000E+00  0.00000000E+00
  0.00000000E+00  0.00000000E+00  0.00000000E+00
  0.00000000E+00  0.00000000E+00  0.00000000E+00
  0.00000000E+00  0.00000000E+00  0.00000000E+00
  0.00000000E+00  0.00000000E+00  0.00000000E+00
  0.00000000E+00  0.00000000E+00  0.00000000E+00
  0.00000000E+00  0.00000000E+00  0.00000000E+00
  0.00000000E+00  0.00000000E+00  0.00000000E+00
  0.00000000E+00  0.00000000E+00  0.00000000E+00
  0.00000000E+00  0.00000000E+00  0.00000000E+00
  0.00000000E+00  0.00000000E+00  0.00000000E+00
  0.00000000E+00  0.00000000E+00  0.00000000E+00
  0.00000000E+00  0.00000000E+00  0.00000000E+00
  0.00000000E+00  0.00000000E+00  0.00000000E+00
  0.00000000E+00  0.00000000E+00  0.00000000E+00
  0.00000000E+00  0.00000000E+00  0.00000000E+00
  0.00000000E+00  0.00000000E+00  0.00000000E+00
  0.00000000E+00  0.00000000E+00  0.00000000E+00
  0.00000000E+00  0.00000000E+00  0.00000000E+00
  0.00000000E+00  0.00000000E+00  0.00000000E+00
  0.00000000E+00  0.00000000E+00  0.00000000E+00
  0.00000000E+00  0.00000000E+00  0.00000000E+00
  0.00000000E+00  0.00000000E+00  0.00000000E+00
  0.00000000E+00  0.00000000E+00  0.00000000E+00
  0.00000000E+00  0.00000000E+00  0.00000000E+00
  0.00000000E+00  0.00000000E+00  0.00000000E+00
  0.00000000E+00  0.00000000E+00  0.00000000E+00
  0.00000000E+00  0.00000000E+00  0.00000000E+00
  0.00000000E+00  0.00000000E+00  0.00000000E+00
  0.00000000E+00  0.00000000E+00  0.00000000E+00
  0.00000000E+00  0.00000000E+00  0.00000000E+00
  0.00000000E+00  0.00000000E+00  0.00000000E+00
  0.00000000E+00  0.00000000E+00  0.00000000E+00
  0.00000000E+00  0.00000000E+00  0.00000000E+00
  0.00000000E+00  0.00000000E+00  0.00000000E+00
  0.00000000E+00  0.00000000E+00  0.00000000E+00
  0.00000000E+00  0.00000000E+00  0.00000000E+00
  0.00000000E+00  0.00000000E+00  0.00000000E+00
  0.00000000E+00  0.00000000E+00  0.00000000E+00
  0.00000000E+00  0.00000000E+00  0.00000000E+00
  0.00000000E+00  0.00000000E+00  0.00000000E+00
  0.00000000E+00  0.00000000E+00  0.00000000E+00
  0.00000000E+00  0.00000000E+00  0.00000000E+00
  0.00000000E+00  0.00000000E+00  0.00000000E+00
  0.00000000E+00  0.00000000E+00  0.00000000E+00
  0.00000000E+00  0.00000000E+00  0.00000000E+00
  0.00000000E+00  0.00000000E+00  0.00000000E+00
  0.00000000E+00  0.00000000E+00  0.00000000E+00
  0.00000000E+00  0.00000000E+00  0.00000000E+00
  0.00000000E+00  0.00000000E+00  0.00000000E+00
