Y24 Ti24 S24 O60
1.0
3.770023 0.000000 0.000000
-0.000000 22.703513 0.000000
0.000000 0.000000 45.240276
Y Ti S O
24 24 24 60
direct
0.500000 0.167230 0.270833 Y3+
0.000000 0.332770 0.312500 Y3+
0.000000 0.667230 0.312500 Y3+
0.500000 0.832770 0.270833 Y3+
0.500000 0.167230 0.354167 Y3+
0.000000 0.332770 0.395833 Y3+
0.000000 0.667230 0.395833 Y3+
0.500000 0.832770 0.354167 Y3+
0.500000 0.167230 0.437500 Y3+
0.000000 0.332770 0.479167 Y3+
0.000000 0.667230 0.479167 Y3+
0.500000 0.832770 0.437500 Y3+
0.500000 0.167230 0.520833 Y3+
0.000000 0.332770 0.562500 Y3+
0.000000 0.667230 0.562500 Y3+
0.500000 0.832770 0.520833 Y3+
0.500000 0.167230 0.604167 Y3+
0.000000 0.332770 0.645833 Y3+
0.000000 0.667230 0.645833 Y3+
0.500000 0.832770 0.604167 Y3+
0.500000 0.167230 0.687500 Y3+
0.000000 0.332770 0.729167 Y3+
0.000000 0.667230 0.729167 Y3+
0.500000 0.832770 0.687500 Y3+
0.500000 0.419887 0.270833 Ti4+
0.000000 0.080113 0.312500 Ti4+
0.000000 0.919887 0.312500 Ti4+
0.500000 0.580113 0.270833 Ti4+
0.500000 0.419887 0.354167 Ti4+
0.000000 0.080113 0.395833 Ti4+
0.000000 0.919887 0.395833 Ti4+
0.500000 0.580113 0.354167 Ti4+
0.500000 0.419887 0.437500 Ti4+
0.000000 0.080113 0.479167 Ti4+
0.000000 0.919887 0.479167 Ti4+
0.500000 0.580113 0.437500 Ti4+
0.500000 0.419887 0.520833 Ti4+
0.000000 0.080113 0.562500 Ti4+
0.000000 0.919887 0.562500 Ti4+
0.500000 0.580113 0.520833 Ti4+
0.500000 0.419887 0.604167 Ti4+
0.000000 0.080113 0.645833 Ti4+
0.000000 0.919887 0.645833 Ti4+
0.500000 0.580113 0.604167 Ti4+
0.500000 0.419887 0.687500 Ti4+
0.000000 0.080113 0.729167 Ti4+
0.000000 0.919887 0.729167 Ti4+
0.500000 0.580113 0.687500 Ti4+
0.500000 0.294209 0.270833 S2-
0.000000 0.205791 0.312500 S2-
0.000000 0.794209 0.312500 S2-
0.500000 0.705791 0.270833 S2-
0.500000 0.294209 0.354167 S2-
0.000000 0.205791 0.395833 S2-
0.000000 0.794209 0.395833 S2-
0.500000 0.705791 0.354167 S2-
0.500000 0.294209 0.437500 S2-
0.000000 0.205791 0.479167 S2-
0.000000 0.794209 0.479167 S2-
0.500000 0.705791 0.437500 S2-
0.500000 0.294209 0.520833 S2-
0.000000 0.205791 0.562500 S2-
0.000000 0.794209 0.562500 S2-
0.500000 0.705791 0.520833 S2-
0.500000 0.294209 0.604167 S2-
0.000000 0.205791 0.645833 S2-
0.000000 0.794209 0.645833 S2-
0.500000 0.705791 0.604167 S2-
0.500000 0.294209 0.687500 S2-
0.000000 0.205791 0.729167 S2-
0.000000 0.794209 0.729167 S2-
0.500000 0.705791 0.687500 S2-
0.000000 0.000000 0.312500 O2-
0.500000 0.398876 0.312500 O2-
0.500000 0.101124 0.312500 O2-
0.000000 0.398876 0.270833 O2-
0.000000 0.101124 0.270833 O2-
0.500000 0.500000 0.270833 O2-
0.000000 0.898876 0.270833 O2-
0.000000 0.601124 0.270833 O2-
0.500000 0.898876 0.312500 O2-
0.500000 0.601124 0.312500 O2-
0.000000 0.000000 0.395833 O2-
0.500000 0.398876 0.395833 O2-
0.500000 0.101124 0.395833 O2-
0.000000 0.398876 0.354167 O2-
0.000000 0.101124 0.354167 O2-
0.500000 0.500000 0.354167 O2-
0.000000 0.898876 0.354167 O2-
0.000000 0.601124 0.354167 O2-
0.500000 0.898876 0.395833 O2-
0.500000 0.601124 0.395833 O2-
0.000000 0.000000 0.479167 O2-
0.500000 0.398876 0.479167 O2-
0.500000 0.101124 0.479167 O2-
0.000000 0.398876 0.437500 O2-
0.000000 0.101124 0.437500 O2-
0.500000 0.500000 0.437500 O2-
0.000000 0.898876 0.437500 O2-
0.000000 0.601124 0.437500 O2-
0.500000 0.898876 0.479167 O2-
0.500000 0.601124 0.479167 O2-
0.000000 0.000000 0.562500 O2-
0.500000 0.398876 0.562500 O2-
0.500000 0.101124 0.562500 O2-
0.000000 0.398876 0.520833 O2-
0.000000 0.101124 0.520833 O2-
0.500000 0.500000 0.520833 O2-
0.000000 0.898876 0.520833 O2-
0.000000 0.601124 0.520833 O2-
0.500000 0.898876 0.562500 O2-
0.500000 0.601124 0.562500 O2-
0.000000 0.000000 0.645833 O2-
0.500000 0.398876 0.645833 O2-
0.500000 0.101124 0.645833 O2-
0.000000 0.398876 0.604167 O2-
0.000000 0.101124 0.604167 O2-
0.500000 0.500000 0.604167 O2-
0.000000 0.898876 0.604167 O2-
0.000000 0.601124 0.604167 O2-
0.500000 0.898876 0.645833 O2-
0.500000 0.601124 0.645833 O2-
0.000000 0.000000 0.729167 O2-
0.500000 0.398876 0.729167 O2-
0.500000 0.101124 0.729167 O2-
0.000000 0.398876 0.687500 O2-
0.000000 0.101124 0.687500 O2-
0.500000 0.500000 0.687500 O2-
0.000000 0.898876 0.687500 O2-
0.000000 0.601124 0.687500 O2-
0.500000 0.898876 0.729167 O2-
0.500000 0.601124 0.729167 O2-
