pymatgen v2020.12.31 with grid density = 761 / number of atoms
0
Gamma
7 1 1
