Y32 Ti32 S32 O80
1.0
3.770023 0.000000 0.000000
-0.000000 22.703513 0.000000
0.000000 0.000000 60.320368
Y Ti S O
32 32 32 80
direct
0.500000 0.167230 0.015625 Y3+
0.000000 0.332770 0.046875 Y3+
0.000000 0.667230 0.046875 Y3+
0.500000 0.832770 0.015625 Y3+
0.500000 0.167230 0.078125 Y3+
0.000000 0.332770 0.109375 Y3+
0.000000 0.667230 0.109375 Y3+
0.500000 0.832770 0.078125 Y3+
0.500000 0.167230 0.140625 Y3+
0.000000 0.332770 0.171875 Y3+
0.000000 0.667230 0.171875 Y3+
0.500000 0.832770 0.140625 Y3+
0.500000 0.167230 0.203125 Y3+
0.000000 0.332770 0.234375 Y3+
0.000000 0.667230 0.234375 Y3+
0.500000 0.832770 0.203125 Y3+
0.500000 0.167230 0.265625 Y3+
0.000000 0.332770 0.296875 Y3+
0.000000 0.667230 0.296875 Y3+
0.500000 0.832770 0.265625 Y3+
0.500000 0.167230 0.328125 Y3+
0.000000 0.332770 0.359375 Y3+
0.000000 0.667230 0.359375 Y3+
0.500000 0.832770 0.328125 Y3+
0.500000 0.167230 0.390625 Y3+
0.000000 0.332770 0.421875 Y3+
0.000000 0.667230 0.421875 Y3+
0.500000 0.832770 0.390625 Y3+
0.500000 0.167230 0.453125 Y3+
0.000000 0.332770 0.484375 Y3+
0.000000 0.667230 0.484375 Y3+
0.500000 0.832770 0.453125 Y3+
0.500000 0.419887 0.015625 Ti4+
0.000000 0.080113 0.046875 Ti4+
0.000000 0.919887 0.046875 Ti4+
0.500000 0.580113 0.015625 Ti4+
0.500000 0.419887 0.078125 Ti4+
0.000000 0.080113 0.109375 Ti4+
0.000000 0.919887 0.109375 Ti4+
0.500000 0.580113 0.078125 Ti4+
0.500000 0.419887 0.140625 Ti4+
0.000000 0.080113 0.171875 Ti4+
0.000000 0.919887 0.171875 Ti4+
0.500000 0.580113 0.140625 Ti4+
0.500000 0.419887 0.203125 Ti4+
0.000000 0.080113 0.234375 Ti4+
0.000000 0.919887 0.234375 Ti4+
0.500000 0.580113 0.203125 Ti4+
0.500000 0.419887 0.265625 Ti4+
0.000000 0.080113 0.296875 Ti4+
0.000000 0.919887 0.296875 Ti4+
0.500000 0.580113 0.265625 Ti4+
0.500000 0.419887 0.328125 Ti4+
0.000000 0.080113 0.359375 Ti4+
0.000000 0.919887 0.359375 Ti4+
0.500000 0.580113 0.328125 Ti4+
0.500000 0.419887 0.390625 Ti4+
0.000000 0.080113 0.421875 Ti4+
0.000000 0.919887 0.421875 Ti4+
0.500000 0.580113 0.390625 Ti4+
0.500000 0.419887 0.453125 Ti4+
0.000000 0.080113 0.484375 Ti4+
0.000000 0.919887 0.484375 Ti4+
0.500000 0.580113 0.453125 Ti4+
0.500000 0.294209 0.015625 S2-
0.000000 0.205791 0.046875 S2-
0.000000 0.794209 0.046875 S2-
0.500000 0.705791 0.015625 S2-
0.500000 0.294209 0.078125 S2-
0.000000 0.205791 0.109375 S2-
0.000000 0.794209 0.109375 S2-
0.500000 0.705791 0.078125 S2-
0.500000 0.294209 0.140625 S2-
0.000000 0.205791 0.171875 S2-
0.000000 0.794209 0.171875 S2-
0.500000 0.705791 0.140625 S2-
0.500000 0.294209 0.203125 S2-
0.000000 0.205791 0.234375 S2-
0.000000 0.794209 0.234375 S2-
0.500000 0.705791 0.203125 S2-
0.500000 0.294209 0.265625 S2-
0.000000 0.205791 0.296875 S2-
0.000000 0.794209 0.296875 S2-
0.500000 0.705791 0.265625 S2-
0.500000 0.294209 0.328125 S2-
0.000000 0.205791 0.359375 S2-
0.000000 0.794209 0.359375 S2-
0.500000 0.705791 0.328125 S2-
0.500000 0.294209 0.390625 S2-
0.000000 0.205791 0.421875 S2-
0.000000 0.794209 0.421875 S2-
0.500000 0.705791 0.390625 S2-
0.500000 0.294209 0.453125 S2-
0.000000 0.205791 0.484375 S2-
0.000000 0.794209 0.484375 S2-
0.500000 0.705791 0.453125 S2-
0.000000 0.000000 0.046875 O2-
0.500000 0.398876 0.046875 O2-
0.500000 0.101124 0.046875 O2-
0.000000 0.398876 0.015625 O2-
0.000000 0.101124 0.015625 O2-
0.500000 0.500000 0.015625 O2-
0.000000 0.898876 0.015625 O2-
0.000000 0.601124 0.015625 O2-
0.500000 0.898876 0.046875 O2-
0.500000 0.601124 0.046875 O2-
0.000000 0.000000 0.109375 O2-
0.500000 0.398876 0.109375 O2-
0.500000 0.101124 0.109375 O2-
0.000000 0.398876 0.078125 O2-
0.000000 0.101124 0.078125 O2-
0.500000 0.500000 0.078125 O2-
0.000000 0.898876 0.078125 O2-
0.000000 0.601124 0.078125 O2-
0.500000 0.898876 0.109375 O2-
0.500000 0.601124 0.109375 O2-
0.000000 0.000000 0.171875 O2-
0.500000 0.398876 0.171875 O2-
0.500000 0.101124 0.171875 O2-
0.000000 0.398876 0.140625 O2-
0.000000 0.101124 0.140625 O2-
0.500000 0.500000 0.140625 O2-
0.000000 0.898876 0.140625 O2-
0.000000 0.601124 0.140625 O2-
0.500000 0.898876 0.171875 O2-
0.500000 0.601124 0.171875 O2-
0.000000 0.000000 0.234375 O2-
0.500000 0.398876 0.234375 O2-
0.500000 0.101124 0.234375 O2-
0.000000 0.398876 0.203125 O2-
0.000000 0.101124 0.203125 O2-
0.500000 0.500000 0.203125 O2-
0.000000 0.898876 0.203125 O2-
0.000000 0.601124 0.203125 O2-
0.500000 0.898876 0.234375 O2-
0.500000 0.601124 0.234375 O2-
0.000000 0.000000 0.296875 O2-
0.500000 0.398876 0.296875 O2-
0.500000 0.101124 0.296875 O2-
0.000000 0.398876 0.265625 O2-
0.000000 0.101124 0.265625 O2-
0.500000 0.500000 0.265625 O2-
0.000000 0.898876 0.265625 O2-
0.000000 0.601124 0.265625 O2-
0.500000 0.898876 0.296875 O2-
0.500000 0.601124 0.296875 O2-
0.000000 0.000000 0.359375 O2-
0.500000 0.398876 0.359375 O2-
0.500000 0.101124 0.359375 O2-
0.000000 0.398876 0.328125 O2-
0.000000 0.101124 0.328125 O2-
0.500000 0.500000 0.328125 O2-
0.000000 0.898876 0.328125 O2-
0.000000 0.601124 0.328125 O2-
0.500000 0.898876 0.359375 O2-
0.500000 0.601124 0.359375 O2-
0.000000 0.000000 0.421875 O2-
0.500000 0.398876 0.421875 O2-
0.500000 0.101124 0.421875 O2-
0.000000 0.398876 0.390625 O2-
0.000000 0.101124 0.390625 O2-
0.500000 0.500000 0.390625 O2-
0.000000 0.898876 0.390625 O2-
0.000000 0.601124 0.390625 O2-
0.500000 0.898876 0.421875 O2-
0.500000 0.601124 0.421875 O2-
0.000000 0.000000 0.484375 O2-
0.500000 0.398876 0.484375 O2-
0.500000 0.101124 0.484375 O2-
0.000000 0.398876 0.453125 O2-
0.000000 0.101124 0.453125 O2-
0.500000 0.500000 0.453125 O2-
0.000000 0.898876 0.453125 O2-
0.000000 0.601124 0.453125 O2-
0.500000 0.898876 0.484375 O2-
0.500000 0.601124 0.484375 O2-
