Y18 Ti18 S18 O45
1.0
3.768529 0.000000 0.106113
1.882374 11.507004 0.120219
0.000000 0.000000 66.971407
O S Ti Y
45 18 18 18
direct
0.000000 0.722222 0.277778 O2-
0.101124 0.497815 0.299938 O2-
0.398876 0.918852 0.283396 O2-
0.601124 0.525593 0.272160 O2-
0.898876 0.946630 0.255618 O2-
0.000000 0.666667 0.333333 O2-
0.101124 0.442259 0.355493 O2-
0.398876 0.863296 0.338951 O2-
0.601124 0.470037 0.327715 O2-
0.898876 0.891074 0.311174 O2-
0.000000 0.611111 0.388889 O2-
0.101124 0.386704 0.411049 O2-
0.398876 0.807741 0.394507 O2-
0.601124 0.414482 0.383271 O2-
0.898876 0.835518 0.366729 O2-
0.000000 0.555556 0.444444 O2-
0.101124 0.331148 0.466604 O2-
0.398876 0.752185 0.450062 O2-
0.601124 0.358926 0.438826 O2-
0.898876 0.779963 0.422285 O2-
0.000000 0.500000 0.500000 O2-
0.101124 0.275593 0.522160 O2-
0.398876 0.696630 0.505618 O2-
0.601124 0.303370 0.494382 O2-
0.898876 0.724407 0.477840 O2-
0.000000 0.444444 0.555556 O2-
0.101124 0.220037 0.577715 O2-
0.398876 0.641074 0.561174 O2-
0.601124 0.247815 0.549938 O2-
0.898876 0.668852 0.533396 O2-
0.000000 0.388889 0.611111 O2-
0.101124 0.164482 0.633271 O2-
0.398876 0.585518 0.616729 O2-
0.601124 0.192259 0.605493 O2-
0.898876 0.613296 0.588951 O2-
0.000000 0.333333 0.666667 O2-
0.101124 0.108926 0.688826 O2-
0.398876 0.529963 0.672285 O2-
0.601124 0.136704 0.661049 O2-
0.898876 0.557741 0.644507 O2-
0.000000 0.277778 0.722222 O2-
0.101124 0.053370 0.744382 O2-
0.398876 0.474407 0.727840 O2-
0.601124 0.081148 0.716604 O2-
0.898876 0.502185 0.700062 O2-
0.205791 0.322072 0.266345 S2-
0.794209 0.122372 0.289211 S2-
0.205791 0.266517 0.321900 S2-
0.794209 0.066817 0.344766 S2-
0.205791 0.210961 0.377456 S2-
0.794209 0.011261 0.400322 S2-
0.205791 0.155405 0.433012 S2-
0.794209 0.955706 0.455877 S2-
0.205791 0.099850 0.488567 S2-
0.794209 0.900150 0.511433 S2-
0.205791 0.044294 0.544123 S2-
0.794209 0.844595 0.566988 S2-
0.205791 0.988739 0.599678 S2-
0.794209 0.789039 0.622544 S2-
0.205791 0.933183 0.655234 S2-
0.794209 0.733483 0.678100 S2-
0.205791 0.877628 0.710789 S2-
0.794209 0.677928 0.733655 S2-
0.080113 0.566447 0.273327 Ti4+
0.919887 0.877997 0.282228 Ti4+
0.080113 0.510892 0.328883 Ti4+
0.919887 0.822442 0.337784 Ti4+
0.080113 0.455336 0.384438 Ti4+
0.919887 0.766886 0.393340 Ti4+
0.080113 0.399781 0.439994 Ti4+
0.919887 0.711331 0.448895 Ti4+
0.080113 0.344225 0.495549 Ti4+
0.919887 0.655775 0.504451 Ti4+
0.080113 0.288669 0.551105 Ti4+
0.919887 0.600219 0.560006 Ti4+
0.080113 0.233114 0.606660 Ti4+
0.919887 0.544664 0.615562 Ti4+
0.080113 0.177558 0.662216 Ti4+
0.919887 0.489108 0.671117 Ti4+
0.080113 0.122003 0.717772 Ti4+
0.919887 0.433553 0.726673 Ti4+
0.332770 0.075169 0.259291 Y3+
0.667230 0.369275 0.296265 Y3+
0.332770 0.019614 0.314846 Y3+
0.667230 0.313720 0.351821 Y3+
0.332770 0.964058 0.370402 Y3+
0.667230 0.258164 0.407376 Y3+
0.332770 0.908502 0.425957 Y3+
0.667230 0.202609 0.462932 Y3+
0.332770 0.852947 0.481513 Y3+
0.667230 0.147053 0.518487 Y3+
0.332770 0.797391 0.537068 Y3+
0.667230 0.091498 0.574043 Y3+
0.332770 0.741836 0.592624 Y3+
0.667230 0.035942 0.629598 Y3+
0.332770 0.686280 0.648179 Y3+
0.667230 0.980386 0.685154 Y3+
0.332770 0.630725 0.703735 Y3+
0.667230 0.924831 0.740709 Y3+
