Y32 Ti32 S32 O80
1.0
5.331618 0.000000 0.000000
2.665809 22.703513 -2.665809
0.000000 0.000000 42.652941
Y Ti S O
32 32 32 80
direct
0.041385 0.167230 0.307327 Y3+
0.958615 0.332770 0.255173 Y3+
0.791385 0.667230 0.276077 Y3+
0.208615 0.832770 0.286423 Y3+
0.541385 0.167230 0.369827 Y3+
0.458615 0.332770 0.317673 Y3+
0.291385 0.667230 0.338577 Y3+
0.708615 0.832770 0.348923 Y3+
0.041385 0.167230 0.432327 Y3+
0.958615 0.332770 0.380173 Y3+
0.791385 0.667230 0.401077 Y3+
0.208615 0.832770 0.411423 Y3+
0.541385 0.167230 0.494827 Y3+
0.458615 0.332770 0.442673 Y3+
0.291385 0.667230 0.463577 Y3+
0.708615 0.832770 0.473923 Y3+
0.041385 0.167230 0.557327 Y3+
0.958615 0.332770 0.505173 Y3+
0.791385 0.667230 0.526077 Y3+
0.208615 0.832770 0.536423 Y3+
0.541385 0.167230 0.619827 Y3+
0.458615 0.332770 0.567673 Y3+
0.291385 0.667230 0.588577 Y3+
0.708615 0.832770 0.598923 Y3+
0.041385 0.167230 0.682327 Y3+
0.958615 0.332770 0.630173 Y3+
0.791385 0.667230 0.651077 Y3+
0.208615 0.832770 0.661423 Y3+
0.541385 0.167230 0.744827 Y3+
0.458615 0.332770 0.692673 Y3+
0.291385 0.667230 0.713577 Y3+
0.708615 0.832770 0.723923 Y3+
0.415056 0.419887 0.260618 Ti4+
0.584944 0.080113 0.301882 Ti4+
0.665056 0.919887 0.291868 Ti4+
0.334944 0.580113 0.270632 Ti4+
0.915056 0.419887 0.323118 Ti4+
0.084944 0.080113 0.364382 Ti4+
0.165056 0.919887 0.354368 Ti4+
0.834944 0.580113 0.333132 Ti4+
0.415056 0.419887 0.385618 Ti4+
0.584944 0.080113 0.426882 Ti4+
0.665056 0.919887 0.416868 Ti4+
0.334944 0.580113 0.395632 Ti4+
0.915056 0.419887 0.448118 Ti4+
0.084944 0.080113 0.489382 Ti4+
0.165056 0.919887 0.479368 Ti4+
0.834944 0.580113 0.458132 Ti4+
0.415056 0.419887 0.510618 Ti4+
0.584944 0.080113 0.551882 Ti4+
0.665056 0.919887 0.541868 Ti4+
0.334944 0.580113 0.520632 Ti4+
0.915056 0.419887 0.573118 Ti4+
0.084944 0.080113 0.614382 Ti4+
0.165056 0.919887 0.604368 Ti4+
0.834944 0.580113 0.583132 Ti4+
0.415056 0.419887 0.635618 Ti4+
0.584944 0.080113 0.676882 Ti4+
0.665056 0.919887 0.666868 Ti4+
0.334944 0.580113 0.645632 Ti4+
0.915056 0.419887 0.698118 Ti4+
0.084944 0.080113 0.739382 Ti4+
0.165056 0.919887 0.729368 Ti4+
0.834944 0.580113 0.708132 Ti4+
0.477896 0.294209 0.252763 S2-
0.522104 0.205791 0.309737 S2-
0.727896 0.794209 0.284013 S2-
0.272104 0.705791 0.278487 S2-
0.977896 0.294209 0.315263 S2-
0.022104 0.205791 0.372237 S2-
0.227896 0.794209 0.346513 S2-
0.772104 0.705791 0.340987 S2-
0.477896 0.294209 0.377763 S2-
0.522104 0.205791 0.434737 S2-
0.727896 0.794209 0.409013 S2-
0.272104 0.705791 0.403487 S2-
0.977896 0.294209 0.440263 S2-
0.022104 0.205791 0.497237 S2-
0.227896 0.794209 0.471513 S2-
0.772104 0.705791 0.465987 S2-
0.477896 0.294209 0.502763 S2-
0.522104 0.205791 0.559737 S2-
0.727896 0.794209 0.534013 S2-
0.272104 0.705791 0.528487 S2-
0.977896 0.294209 0.565263 S2-
0.022104 0.205791 0.622237 S2-
0.227896 0.794209 0.596513 S2-
0.772104 0.705791 0.590987 S2-
0.477896 0.294209 0.627763 S2-
0.522104 0.205791 0.684737 S2-
0.727896 0.794209 0.659013 S2-
0.272104 0.705791 0.653487 S2-
0.977896 0.294209 0.690263 S2-
0.022104 0.205791 0.747237 S2-
0.227896 0.794209 0.721513 S2-
0.772104 0.705791 0.715987 S2-
0.625000 0.000000 0.296875 O2-
0.175562 0.398876 0.290555 O2-
0.324438 0.101124 0.271945 O2-
0.675562 0.398876 0.290555 O2-
0.824438 0.101124 0.271945 O2-
0.375000 0.500000 0.265625 O2-
0.925562 0.898876 0.259305 O2-
0.574438 0.601124 0.303195 O2-
0.425562 0.898876 0.259305 O2-
0.074438 0.601124 0.303195 O2-
0.125000 0.000000 0.359375 O2-
0.675562 0.398876 0.353055 O2-
0.824438 0.101124 0.334445 O2-
0.175562 0.398876 0.353055 O2-
0.324438 0.101124 0.334445 O2-
0.875000 0.500000 0.328125 O2-
0.425562 0.898876 0.321805 O2-
0.074438 0.601124 0.365695 O2-
0.925562 0.898876 0.321805 O2-
0.574438 0.601124 0.365695 O2-
0.625000 0.000000 0.421875 O2-
0.175562 0.398876 0.415555 O2-
0.324438 0.101124 0.396945 O2-
0.675562 0.398876 0.415555 O2-
0.824438 0.101124 0.396945 O2-
0.375000 0.500000 0.390625 O2-
0.925562 0.898876 0.384305 O2-
0.574438 0.601124 0.428195 O2-
0.425562 0.898876 0.384305 O2-
0.074438 0.601124 0.428195 O2-
0.125000 0.000000 0.484375 O2-
0.675562 0.398876 0.478055 O2-
0.824438 0.101124 0.459445 O2-
0.175562 0.398876 0.478055 O2-
0.324438 0.101124 0.459445 O2-
0.875000 0.500000 0.453125 O2-
0.425562 0.898876 0.446805 O2-
0.074438 0.601124 0.490695 O2-
0.925562 0.898876 0.446805 O2-
0.574438 0.601124 0.490695 O2-
0.625000 0.000000 0.546875 O2-
0.175562 0.398876 0.540555 O2-
0.324438 0.101124 0.521945 O2-
0.675562 0.398876 0.540555 O2-
0.824438 0.101124 0.521945 O2-
0.375000 0.500000 0.515625 O2-
0.925562 0.898876 0.509305 O2-
0.574438 0.601124 0.553195 O2-
0.425562 0.898876 0.509305 O2-
0.074438 0.601124 0.553195 O2-
0.125000 0.000000 0.609375 O2-
0.675562 0.398876 0.603055 O2-
0.824438 0.101124 0.584445 O2-
0.175562 0.398876 0.603055 O2-
0.324438 0.101124 0.584445 O2-
0.875000 0.500000 0.578125 O2-
0.425562 0.898876 0.571805 O2-
0.074438 0.601124 0.615695 O2-
0.925562 0.898876 0.571805 O2-
0.574438 0.601124 0.615695 O2-
0.625000 0.000000 0.671875 O2-
0.175562 0.398876 0.665555 O2-
0.324438 0.101124 0.646945 O2-
0.675562 0.398876 0.665555 O2-
0.824438 0.101124 0.646945 O2-
0.375000 0.500000 0.640625 O2-
0.925562 0.898876 0.634305 O2-
0.574438 0.601124 0.678195 O2-
0.425562 0.898876 0.634305 O2-
0.074438 0.601124 0.678195 O2-
0.125000 0.000000 0.734375 O2-
0.675562 0.398876 0.728055 O2-
0.824438 0.101124 0.709445 O2-
0.175562 0.398876 0.728055 O2-
0.324438 0.101124 0.709445 O2-
0.875000 0.500000 0.703125 O2-
0.425562 0.898876 0.696805 O2-
0.074438 0.601124 0.740695 O2-
0.925562 0.898876 0.696805 O2-
0.574438 0.601124 0.740695 O2-
