Y32 Ti32 S32 O80
1.0
5.331618 0.000000 0.000000
2.665809 22.703513 -2.665809
0.000000 0.000000 53.316177
Y Ti S O
32 32 32 80
direct
0.041385 0.167230 0.345861 Y3+
0.958615 0.332770 0.304139 Y3+
0.791385 0.667230 0.320861 Y3+
0.208615 0.832770 0.329139 Y3+
0.541385 0.167230 0.395861 Y3+
0.458615 0.332770 0.354139 Y3+
0.291385 0.667230 0.370861 Y3+
0.708615 0.832770 0.379139 Y3+
0.041385 0.167230 0.445861 Y3+
0.958615 0.332770 0.404139 Y3+
0.791385 0.667230 0.420861 Y3+
0.208615 0.832770 0.429139 Y3+
0.541385 0.167230 0.495861 Y3+
0.458615 0.332770 0.454139 Y3+
0.291385 0.667230 0.470861 Y3+
0.708615 0.832770 0.479139 Y3+
0.041385 0.167230 0.545861 Y3+
0.958615 0.332770 0.504139 Y3+
0.791385 0.667230 0.520861 Y3+
0.208615 0.832770 0.529139 Y3+
0.541385 0.167230 0.595861 Y3+
0.458615 0.332770 0.554139 Y3+
0.291385 0.667230 0.570861 Y3+
0.708615 0.832770 0.579139 Y3+
0.041385 0.167230 0.645861 Y3+
0.958615 0.332770 0.604139 Y3+
0.791385 0.667230 0.620861 Y3+
0.208615 0.832770 0.629139 Y3+
0.541385 0.167230 0.695861 Y3+
0.458615 0.332770 0.654139 Y3+
0.291385 0.667230 0.670861 Y3+
0.708615 0.832770 0.679139 Y3+
0.415056 0.419887 0.308494 Ti4+
0.584944 0.080113 0.341506 Ti4+
0.665056 0.919887 0.333494 Ti4+
0.334944 0.580113 0.316506 Ti4+
0.915056 0.419887 0.358494 Ti4+
0.084944 0.080113 0.391506 Ti4+
0.165056 0.919887 0.383494 Ti4+
0.834944 0.580113 0.366506 Ti4+
0.415056 0.419887 0.408494 Ti4+
0.584944 0.080113 0.441506 Ti4+
0.665056 0.919887 0.433494 Ti4+
0.334944 0.580113 0.416506 Ti4+
0.915056 0.419887 0.458494 Ti4+
0.084944 0.080113 0.491506 Ti4+
0.165056 0.919887 0.483494 Ti4+
0.834944 0.580113 0.466506 Ti4+
0.415056 0.419887 0.508494 Ti4+
0.584944 0.080113 0.541506 Ti4+
0.665056 0.919887 0.533494 Ti4+
0.334944 0.580113 0.516506 Ti4+
0.915056 0.419887 0.558494 Ti4+
0.084944 0.080113 0.591506 Ti4+
0.165056 0.919887 0.583494 Ti4+
0.834944 0.580113 0.566506 Ti4+
0.415056 0.419887 0.608494 Ti4+
0.584944 0.080113 0.641506 Ti4+
0.665056 0.919887 0.633494 Ti4+
0.334944 0.580113 0.616506 Ti4+
0.915056 0.419887 0.658494 Ti4+
0.084944 0.080113 0.691506 Ti4+
0.165056 0.919887 0.683494 Ti4+
0.834944 0.580113 0.666506 Ti4+
0.477896 0.294209 0.302210 S2-
0.522104 0.205791 0.347790 S2-
0.727896 0.794209 0.327210 S2-
0.272104 0.705791 0.322790 S2-
0.977896 0.294209 0.352210 S2-
0.022104 0.205791 0.397790 S2-
0.227896 0.794209 0.377210 S2-
0.772104 0.705791 0.372790 S2-
0.477896 0.294209 0.402210 S2-
0.522104 0.205791 0.447790 S2-
0.727896 0.794209 0.427210 S2-
0.272104 0.705791 0.422790 S2-
0.977896 0.294209 0.452210 S2-
0.022104 0.205791 0.497790 S2-
0.227896 0.794209 0.477210 S2-
0.772104 0.705791 0.472790 S2-
0.477896 0.294209 0.502210 S2-
0.522104 0.205791 0.547790 S2-
0.727896 0.794209 0.527210 S2-
0.272104 0.705791 0.522790 S2-
0.977896 0.294209 0.552210 S2-
0.022104 0.205791 0.597790 S2-
0.227896 0.794209 0.577210 S2-
0.772104 0.705791 0.572790 S2-
0.477896 0.294209 0.602210 S2-
0.522104 0.205791 0.647790 S2-
0.727896 0.794209 0.627210 S2-
0.272104 0.705791 0.622790 S2-
0.977896 0.294209 0.652210 S2-
0.022104 0.205791 0.697790 S2-
0.227896 0.794209 0.677210 S2-
0.772104 0.705791 0.672790 S2-
0.625000 0.000000 0.337500 O2-
0.175562 0.398876 0.332444 O2-
0.324438 0.101124 0.317556 O2-
0.675562 0.398876 0.332444 O2-
0.824438 0.101124 0.317556 O2-
0.375000 0.500000 0.312500 O2-
0.925562 0.898876 0.307444 O2-
0.574438 0.601124 0.342556 O2-
0.425562 0.898876 0.307444 O2-
0.074438 0.601124 0.342556 O2-
0.125000 0.000000 0.387500 O2-
0.675562 0.398876 0.382444 O2-
0.824438 0.101124 0.367556 O2-
0.175562 0.398876 0.382444 O2-
0.324438 0.101124 0.367556 O2-
0.875000 0.500000 0.362500 O2-
0.425562 0.898876 0.357444 O2-
0.074438 0.601124 0.392556 O2-
0.925562 0.898876 0.357444 O2-
0.574438 0.601124 0.392556 O2-
0.625000 0.000000 0.437500 O2-
0.175562 0.398876 0.432444 O2-
0.324438 0.101124 0.417556 O2-
0.675562 0.398876 0.432444 O2-
0.824438 0.101124 0.417556 O2-
0.375000 0.500000 0.412500 O2-
0.925562 0.898876 0.407444 O2-
0.574438 0.601124 0.442556 O2-
0.425562 0.898876 0.407444 O2-
0.074438 0.601124 0.442556 O2-
0.125000 0.000000 0.487500 O2-
0.675562 0.398876 0.482444 O2-
0.824438 0.101124 0.467556 O2-
0.175562 0.398876 0.482444 O2-
0.324438 0.101124 0.467556 O2-
0.875000 0.500000 0.462500 O2-
0.425562 0.898876 0.457444 O2-
0.074438 0.601124 0.492556 O2-
0.925562 0.898876 0.457444 O2-
0.574438 0.601124 0.492556 O2-
0.625000 0.000000 0.537500 O2-
0.175562 0.398876 0.532444 O2-
0.324438 0.101124 0.517556 O2-
0.675562 0.398876 0.532444 O2-
0.824438 0.101124 0.517556 O2-
0.375000 0.500000 0.512500 O2-
0.925562 0.898876 0.507444 O2-
0.574438 0.601124 0.542556 O2-
0.425562 0.898876 0.507444 O2-
0.074438 0.601124 0.542556 O2-
0.125000 0.000000 0.587500 O2-
0.675562 0.398876 0.582444 O2-
0.824438 0.101124 0.567556 O2-
0.175562 0.398876 0.582444 O2-
0.324438 0.101124 0.567556 O2-
0.875000 0.500000 0.562500 O2-
0.425562 0.898876 0.557444 O2-
0.074438 0.601124 0.592556 O2-
0.925562 0.898876 0.557444 O2-
0.574438 0.601124 0.592556 O2-
0.625000 0.000000 0.637500 O2-
0.175562 0.398876 0.632444 O2-
0.324438 0.101124 0.617556 O2-
0.675562 0.398876 0.632444 O2-
0.824438 0.101124 0.617556 O2-
0.375000 0.500000 0.612500 O2-
0.925562 0.898876 0.607444 O2-
0.574438 0.601124 0.642556 O2-
0.425562 0.898876 0.607444 O2-
0.074438 0.601124 0.642556 O2-
0.125000 0.000000 0.687500 O2-
0.675562 0.398876 0.682444 O2-
0.824438 0.101124 0.667556 O2-
0.175562 0.398876 0.682444 O2-
0.324438 0.101124 0.667556 O2-
0.875000 0.500000 0.662500 O2-
0.425562 0.898876 0.657444 O2-
0.074438 0.601124 0.692556 O2-
0.925562 0.898876 0.657444 O2-
0.574438 0.601124 0.692556 O2-
