Y12 Ti12 S12 O30
1.0
3.766693 0.000000 0.158429
1.839147 11.459032 1.130062
0.000000 0.000000 44.856378
O S Ti Y
30 12 12 12
direct
0.000000 0.708333 0.291667 O2-
0.101124 0.472846 0.324906 O2-
0.398876 0.902154 0.300094 O2-
0.601124 0.514513 0.283240 O2-
0.898876 0.943821 0.258427 O2-
0.000000 0.625000 0.375000 O2-
0.101124 0.389513 0.408240 O2-
0.398876 0.818821 0.383427 O2-
0.601124 0.431179 0.366573 O2-
0.898876 0.860487 0.341760 O2-
0.000000 0.541667 0.458333 O2-
0.101124 0.306179 0.491573 O2-
0.398876 0.735487 0.466760 O2-
0.601124 0.347846 0.449906 O2-
0.898876 0.777154 0.425094 O2-
0.000000 0.458333 0.541667 O2-
0.101124 0.222846 0.574906 O2-
0.398876 0.652154 0.550094 O2-
0.601124 0.264513 0.533240 O2-
0.898876 0.693821 0.508427 O2-
0.000000 0.375000 0.625000 O2-
0.101124 0.139513 0.658240 O2-
0.398876 0.568821 0.633427 O2-
0.601124 0.181179 0.616573 O2-
0.898876 0.610487 0.591760 O2-
0.000000 0.291667 0.708333 O2-
0.101124 0.056179 0.741573 O2-
0.398876 0.485487 0.716760 O2-
0.601124 0.097846 0.699906 O2-
0.898876 0.527154 0.675094 O2-
0.205791 0.313900 0.274517 S2-
0.794209 0.102767 0.308816 S2-
0.205791 0.230566 0.357851 S2-
0.794209 0.019434 0.392149 S2-
0.205791 0.147233 0.441184 S2-
0.794209 0.936100 0.475483 S2-
0.205791 0.063900 0.524517 S2-
0.794209 0.852767 0.558816 S2-
0.205791 0.980566 0.607851 S2-
0.794209 0.769434 0.642149 S2-
0.205791 0.897233 0.691184 S2-
0.794209 0.686100 0.725483 S2-
0.080113 0.554784 0.284991 Ti4+
0.919887 0.861883 0.298343 Ti4+
0.080113 0.471450 0.368324 Ti4+
0.919887 0.778550 0.381676 Ti4+
0.080113 0.388117 0.451657 Ti4+
0.919887 0.695216 0.465009 Ti4+
0.080113 0.304784 0.534991 Ti4+
0.919887 0.611883 0.548343 Ti4+
0.080113 0.221450 0.618324 Ti4+
0.919887 0.528550 0.631676 Ti4+
0.080113 0.138117 0.701657 Ti4+
0.919887 0.445216 0.715009 Ti4+
0.332770 0.070524 0.263936 Y3+
0.667230 0.346143 0.319398 Y3+
0.332770 0.987190 0.347269 Y3+
0.667230 0.262810 0.402731 Y3+
0.332770 0.903857 0.430602 Y3+
0.667230 0.179476 0.486064 Y3+
0.332770 0.820524 0.513936 Y3+
0.667230 0.096143 0.569398 Y3+
0.332770 0.737190 0.597269 Y3+
0.667230 0.012810 0.652731 Y3+
0.332770 0.653857 0.680602 Y3+
0.667230 0.929476 0.736064 Y3+
