Y32 Ti32 S32 O80
1.0
3.770023 0.000000 0.000000
-0.000000 22.703513 0.000000
0.000000 0.000000 60.320368
Y Ti S O
32 32 32 80
direct
0.500000 0.167230 0.265625 Y3+
0.000000 0.332770 0.296875 Y3+
0.000000 0.667230 0.296875 Y3+
0.500000 0.832770 0.265625 Y3+
0.500000 0.167230 0.328125 Y3+
0.000000 0.332770 0.359375 Y3+
0.000000 0.667230 0.359375 Y3+
0.500000 0.832770 0.328125 Y3+
0.500000 0.167230 0.390625 Y3+
0.000000 0.332770 0.421875 Y3+
0.000000 0.667230 0.421875 Y3+
0.500000 0.832770 0.390625 Y3+
0.500000 0.167230 0.453125 Y3+
0.000000 0.332770 0.484375 Y3+
0.000000 0.667230 0.484375 Y3+
0.500000 0.832770 0.453125 Y3+
0.500000 0.167230 0.515625 Y3+
0.000000 0.332770 0.546875 Y3+
0.000000 0.667230 0.546875 Y3+
0.500000 0.832770 0.515625 Y3+
0.500000 0.167230 0.578125 Y3+
0.000000 0.332770 0.609375 Y3+
0.000000 0.667230 0.609375 Y3+
0.500000 0.832770 0.578125 Y3+
0.500000 0.167230 0.640625 Y3+
0.000000 0.332770 0.671875 Y3+
0.000000 0.667230 0.671875 Y3+
0.500000 0.832770 0.640625 Y3+
0.500000 0.167230 0.703125 Y3+
0.000000 0.332770 0.734375 Y3+
0.000000 0.667230 0.734375 Y3+
0.500000 0.832770 0.703125 Y3+
0.500000 0.419887 0.265625 Ti4+
0.000000 0.080113 0.296875 Ti4+
0.000000 0.919887 0.296875 Ti4+
0.500000 0.580113 0.265625 Ti4+
0.500000 0.419887 0.328125 Ti4+
0.000000 0.080113 0.359375 Ti4+
0.000000 0.919887 0.359375 Ti4+
0.500000 0.580113 0.328125 Ti4+
0.500000 0.419887 0.390625 Ti4+
0.000000 0.080113 0.421875 Ti4+
0.000000 0.919887 0.421875 Ti4+
0.500000 0.580113 0.390625 Ti4+
0.500000 0.419887 0.453125 Ti4+
0.000000 0.080113 0.484375 Ti4+
0.000000 0.919887 0.484375 Ti4+
0.500000 0.580113 0.453125 Ti4+
0.500000 0.419887 0.515625 Ti4+
0.000000 0.080113 0.546875 Ti4+
0.000000 0.919887 0.546875 Ti4+
0.500000 0.580113 0.515625 Ti4+
0.500000 0.419887 0.578125 Ti4+
0.000000 0.080113 0.609375 Ti4+
0.000000 0.919887 0.609375 Ti4+
0.500000 0.580113 0.578125 Ti4+
0.500000 0.419887 0.640625 Ti4+
0.000000 0.080113 0.671875 Ti4+
0.000000 0.919887 0.671875 Ti4+
0.500000 0.580113 0.640625 Ti4+
0.500000 0.419887 0.703125 Ti4+
0.000000 0.080113 0.734375 Ti4+
0.000000 0.919887 0.734375 Ti4+
0.500000 0.580113 0.703125 Ti4+
0.500000 0.294209 0.265625 S2-
0.000000 0.205791 0.296875 S2-
0.000000 0.794209 0.296875 S2-
0.500000 0.705791 0.265625 S2-
0.500000 0.294209 0.328125 S2-
0.000000 0.205791 0.359375 S2-
0.000000 0.794209 0.359375 S2-
0.500000 0.705791 0.328125 S2-
0.500000 0.294209 0.390625 S2-
0.000000 0.205791 0.421875 S2-
0.000000 0.794209 0.421875 S2-
0.500000 0.705791 0.390625 S2-
0.500000 0.294209 0.453125 S2-
0.000000 0.205791 0.484375 S2-
0.000000 0.794209 0.484375 S2-
0.500000 0.705791 0.453125 S2-
0.500000 0.294209 0.515625 S2-
0.000000 0.205791 0.546875 S2-
0.000000 0.794209 0.546875 S2-
0.500000 0.705791 0.515625 S2-
0.500000 0.294209 0.578125 S2-
0.000000 0.205791 0.609375 S2-
0.000000 0.794209 0.609375 S2-
0.500000 0.705791 0.578125 S2-
0.500000 0.294209 0.640625 S2-
0.000000 0.205791 0.671875 S2-
0.000000 0.794209 0.671875 S2-
0.500000 0.705791 0.640625 S2-
0.500000 0.294209 0.703125 S2-
0.000000 0.205791 0.734375 S2-
0.000000 0.794209 0.734375 S2-
0.500000 0.705791 0.703125 S2-
0.000000 0.000000 0.296875 O2-
0.500000 0.398876 0.296875 O2-
0.500000 0.101124 0.296875 O2-
0.000000 0.398876 0.265625 O2-
0.000000 0.101124 0.265625 O2-
0.500000 0.500000 0.265625 O2-
0.000000 0.898876 0.265625 O2-
0.000000 0.601124 0.265625 O2-
0.500000 0.898876 0.296875 O2-
0.500000 0.601124 0.296875 O2-
0.000000 0.000000 0.359375 O2-
0.500000 0.398876 0.359375 O2-
0.500000 0.101124 0.359375 O2-
0.000000 0.398876 0.328125 O2-
0.000000 0.101124 0.328125 O2-
0.500000 0.500000 0.328125 O2-
0.000000 0.898876 0.328125 O2-
0.000000 0.601124 0.328125 O2-
0.500000 0.898876 0.359375 O2-
0.500000 0.601124 0.359375 O2-
0.000000 0.000000 0.421875 O2-
0.500000 0.398876 0.421875 O2-
0.500000 0.101124 0.421875 O2-
0.000000 0.398876 0.390625 O2-
0.000000 0.101124 0.390625 O2-
0.500000 0.500000 0.390625 O2-
0.000000 0.898876 0.390625 O2-
0.000000 0.601124 0.390625 O2-
0.500000 0.898876 0.421875 O2-
0.500000 0.601124 0.421875 O2-
0.000000 0.000000 0.484375 O2-
0.500000 0.398876 0.484375 O2-
0.500000 0.101124 0.484375 O2-
0.000000 0.398876 0.453125 O2-
0.000000 0.101124 0.453125 O2-
0.500000 0.500000 0.453125 O2-
0.000000 0.898876 0.453125 O2-
0.000000 0.601124 0.453125 O2-
0.500000 0.898876 0.484375 O2-
0.500000 0.601124 0.484375 O2-
0.000000 0.000000 0.546875 O2-
0.500000 0.398876 0.546875 O2-
0.500000 0.101124 0.546875 O2-
0.000000 0.398876 0.515625 O2-
0.000000 0.101124 0.515625 O2-
0.500000 0.500000 0.515625 O2-
0.000000 0.898876 0.515625 O2-
0.000000 0.601124 0.515625 O2-
0.500000 0.898876 0.546875 O2-
0.500000 0.601124 0.546875 O2-
0.000000 0.000000 0.609375 O2-
0.500000 0.398876 0.609375 O2-
0.500000 0.101124 0.609375 O2-
0.000000 0.398876 0.578125 O2-
0.000000 0.101124 0.578125 O2-
0.500000 0.500000 0.578125 O2-
0.000000 0.898876 0.578125 O2-
0.000000 0.601124 0.578125 O2-
0.500000 0.898876 0.609375 O2-
0.500000 0.601124 0.609375 O2-
0.000000 0.000000 0.671875 O2-
0.500000 0.398876 0.671875 O2-
0.500000 0.101124 0.671875 O2-
0.000000 0.398876 0.640625 O2-
0.000000 0.101124 0.640625 O2-
0.500000 0.500000 0.640625 O2-
0.000000 0.898876 0.640625 O2-
0.000000 0.601124 0.640625 O2-
0.500000 0.898876 0.671875 O2-
0.500000 0.601124 0.671875 O2-
0.000000 0.000000 0.734375 O2-
0.500000 0.398876 0.734375 O2-
0.500000 0.101124 0.734375 O2-
0.000000 0.398876 0.703125 O2-
0.000000 0.101124 0.703125 O2-
0.500000 0.500000 0.703125 O2-
0.000000 0.898876 0.703125 O2-
0.000000 0.601124 0.703125 O2-
0.500000 0.898876 0.734375 O2-
0.500000 0.601124 0.734375 O2-
