Y48 Ti48 S48 O120
1.0
5.331618 0.000000 0.000000
2.665809 22.703513 -2.665809
0.000000 0.000000 63.979412
Y Ti S O
48 48 48 120
direct
0.041385 0.167230 0.288218 Y3+
0.958615 0.332770 0.253449 Y3+
0.791385 0.667230 0.267385 Y3+
0.208615 0.832770 0.274282 Y3+
0.541385 0.167230 0.329885 Y3+
0.458615 0.332770 0.295115 Y3+
0.291385 0.667230 0.309051 Y3+
0.708615 0.832770 0.315949 Y3+
0.041385 0.167230 0.371551 Y3+
0.958615 0.332770 0.336782 Y3+
0.791385 0.667230 0.350718 Y3+
0.208615 0.832770 0.357615 Y3+
0.541385 0.167230 0.413218 Y3+
0.458615 0.332770 0.378449 Y3+
0.291385 0.667230 0.392385 Y3+
0.708615 0.832770 0.399282 Y3+
0.041385 0.167230 0.454885 Y3+
0.958615 0.332770 0.420115 Y3+
0.791385 0.667230 0.434051 Y3+
0.208615 0.832770 0.440949 Y3+
0.541385 0.167230 0.496551 Y3+
0.458615 0.332770 0.461782 Y3+
0.291385 0.667230 0.475718 Y3+
0.708615 0.832770 0.482615 Y3+
0.041385 0.167230 0.538218 Y3+
0.958615 0.332770 0.503449 Y3+
0.791385 0.667230 0.517385 Y3+
0.208615 0.832770 0.524282 Y3+
0.541385 0.167230 0.579885 Y3+
0.458615 0.332770 0.545115 Y3+
0.291385 0.667230 0.559051 Y3+
0.708615 0.832770 0.565949 Y3+
0.041385 0.167230 0.621551 Y3+
0.958615 0.332770 0.586782 Y3+
0.791385 0.667230 0.600718 Y3+
0.208615 0.832770 0.607615 Y3+
0.541385 0.167230 0.663218 Y3+
0.458615 0.332770 0.628449 Y3+
0.291385 0.667230 0.642385 Y3+
0.708615 0.832770 0.649282 Y3+
0.041385 0.167230 0.704885 Y3+
0.958615 0.332770 0.670115 Y3+
0.791385 0.667230 0.684051 Y3+
0.208615 0.832770 0.690949 Y3+
0.541385 0.167230 0.746551 Y3+
0.458615 0.332770 0.711782 Y3+
0.291385 0.667230 0.725718 Y3+
0.708615 0.832770 0.732615 Y3+
0.415056 0.419887 0.257079 Ti4+
0.584944 0.080113 0.284588 Ti4+
0.665056 0.919887 0.277912 Ti4+
0.334944 0.580113 0.263755 Ti4+
0.915056 0.419887 0.298745 Ti4+
0.084944 0.080113 0.326255 Ti4+
0.165056 0.919887 0.319579 Ti4+
0.834944 0.580113 0.305421 Ti4+
0.415056 0.419887 0.340412 Ti4+
0.584944 0.080113 0.367921 Ti4+
0.665056 0.919887 0.361245 Ti4+
0.334944 0.580113 0.347088 Ti4+
0.915056 0.419887 0.382079 Ti4+
0.084944 0.080113 0.409588 Ti4+
0.165056 0.919887 0.402912 Ti4+
0.834944 0.580113 0.388755 Ti4+
0.415056 0.419887 0.423745 Ti4+
0.584944 0.080113 0.451255 Ti4+
0.665056 0.919887 0.444579 Ti4+
0.334944 0.580113 0.430421 Ti4+
0.915056 0.419887 0.465412 Ti4+
0.084944 0.080113 0.492921 Ti4+
0.165056 0.919887 0.486245 Ti4+
0.834944 0.580113 0.472088 Ti4+
0.415056 0.419887 0.507079 Ti4+
0.584944 0.080113 0.534588 Ti4+
0.665056 0.919887 0.527912 Ti4+
0.334944 0.580113 0.513755 Ti4+
0.915056 0.419887 0.548745 Ti4+
0.084944 0.080113 0.576255 Ti4+
0.165056 0.919887 0.569579 Ti4+
0.834944 0.580113 0.555421 Ti4+
0.415056 0.419887 0.590412 Ti4+
0.584944 0.080113 0.617921 Ti4+
0.665056 0.919887 0.611245 Ti4+
0.334944 0.580113 0.597088 Ti4+
0.915056 0.419887 0.632079 Ti4+
0.084944 0.080113 0.659588 Ti4+
0.165056 0.919887 0.652912 Ti4+
0.834944 0.580113 0.638755 Ti4+
0.415056 0.419887 0.673745 Ti4+
0.584944 0.080113 0.701255 Ti4+
0.665056 0.919887 0.694579 Ti4+
0.334944 0.580113 0.680421 Ti4+
0.915056 0.419887 0.715412 Ti4+
0.084944 0.080113 0.742921 Ti4+
0.165056 0.919887 0.736245 Ti4+
0.834944 0.580113 0.722088 Ti4+
0.477896 0.294209 0.251842 S2-
0.522104 0.205791 0.289825 S2-
0.727896 0.794209 0.272675 S2-
0.272104 0.705791 0.268991 S2-
0.977896 0.294209 0.293509 S2-
0.022104 0.205791 0.331491 S2-
0.227896 0.794209 0.314342 S2-
0.772104 0.705791 0.310658 S2-
0.477896 0.294209 0.335175 S2-
0.522104 0.205791 0.373158 S2-
0.727896 0.794209 0.356009 S2-
0.272104 0.705791 0.352325 S2-
0.977896 0.294209 0.376842 S2-
0.022104 0.205791 0.414825 S2-
0.227896 0.794209 0.397675 S2-
0.772104 0.705791 0.393991 S2-
0.477896 0.294209 0.418509 S2-
0.522104 0.205791 0.456491 S2-
0.727896 0.794209 0.439342 S2-
0.272104 0.705791 0.435658 S2-
0.977896 0.294209 0.460175 S2-
0.022104 0.205791 0.498158 S2-
0.227896 0.794209 0.481009 S2-
0.772104 0.705791 0.477325 S2-
0.477896 0.294209 0.501842 S2-
0.522104 0.205791 0.539825 S2-
0.727896 0.794209 0.522675 S2-
0.272104 0.705791 0.518991 S2-
0.977896 0.294209 0.543509 S2-
0.022104 0.205791 0.581491 S2-
0.227896 0.794209 0.564342 S2-
0.772104 0.705791 0.560658 S2-
0.477896 0.294209 0.585175 S2-
0.522104 0.205791 0.623158 S2-
0.727896 0.794209 0.606009 S2-
0.272104 0.705791 0.602325 S2-
0.977896 0.294209 0.626842 S2-
0.022104 0.205791 0.664825 S2-
0.227896 0.794209 0.647675 S2-
0.772104 0.705791 0.643991 S2-
0.477896 0.294209 0.668509 S2-
0.522104 0.205791 0.706491 S2-
0.727896 0.794209 0.689342 S2-
0.272104 0.705791 0.685658 S2-
0.977896 0.294209 0.710175 S2-
0.022104 0.205791 0.748158 S2-
0.227896 0.794209 0.731009 S2-
0.772104 0.705791 0.727325 S2-
0.625000 0.000000 0.281250 O2-
0.175562 0.398876 0.277037 O2-
0.324438 0.101124 0.264630 O2-
0.675562 0.398876 0.277037 O2-
0.824438 0.101124 0.264630 O2-
0.375000 0.500000 0.260417 O2-
0.925562 0.898876 0.256203 O2-
0.574438 0.601124 0.285463 O2-
0.425562 0.898876 0.256203 O2-
0.074438 0.601124 0.285463 O2-
0.125000 0.000000 0.322917 O2-
0.675562 0.398876 0.318703 O2-
0.824438 0.101124 0.306297 O2-
0.175562 0.398876 0.318703 O2-
0.324438 0.101124 0.306297 O2-
0.875000 0.500000 0.302083 O2-
0.425562 0.898876 0.297870 O2-
0.074438 0.601124 0.327130 O2-
0.925562 0.898876 0.297870 O2-
0.574438 0.601124 0.327130 O2-
0.625000 0.000000 0.364583 O2-
0.175562 0.398876 0.360370 O2-
0.324438 0.101124 0.347963 O2-
0.675562 0.398876 0.360370 O2-
0.824438 0.101124 0.347963 O2-
0.375000 0.500000 0.343750 O2-
0.925562 0.898876 0.339537 O2-
0.574438 0.601124 0.368797 O2-
0.425562 0.898876 0.339537 O2-
0.074438 0.601124 0.368797 O2-
0.125000 0.000000 0.406250 O2-
0.675562 0.398876 0.402037 O2-
0.824438 0.101124 0.389630 O2-
0.175562 0.398876 0.402037 O2-
0.324438 0.101124 0.389630 O2-
0.875000 0.500000 0.385417 O2-
0.425562 0.898876 0.381203 O2-
0.074438 0.601124 0.410463 O2-
0.925562 0.898876 0.381203 O2-
0.574438 0.601124 0.410463 O2-
0.625000 0.000000 0.447917 O2-
0.175562 0.398876 0.443703 O2-
0.324438 0.101124 0.431297 O2-
0.675562 0.398876 0.443703 O2-
0.824438 0.101124 0.431297 O2-
0.375000 0.500000 0.427083 O2-
0.925562 0.898876 0.422870 O2-
0.574438 0.601124 0.452130 O2-
0.425562 0.898876 0.422870 O2-
0.074438 0.601124 0.452130 O2-
0.125000 0.000000 0.489583 O2-
0.675562 0.398876 0.485370 O2-
0.824438 0.101124 0.472963 O2-
0.175562 0.398876 0.485370 O2-
0.324438 0.101124 0.472963 O2-
0.875000 0.500000 0.468750 O2-
0.425562 0.898876 0.464537 O2-
0.074438 0.601124 0.493797 O2-
0.925562 0.898876 0.464537 O2-
0.574438 0.601124 0.493797 O2-
0.625000 0.000000 0.531250 O2-
0.175562 0.398876 0.527037 O2-
0.324438 0.101124 0.514630 O2-
0.675562 0.398876 0.527037 O2-
0.824438 0.101124 0.514630 O2-
0.375000 0.500000 0.510417 O2-
0.925562 0.898876 0.506203 O2-
0.574438 0.601124 0.535463 O2-
0.425562 0.898876 0.506203 O2-
0.074438 0.601124 0.535463 O2-
0.125000 0.000000 0.572917 O2-
0.675562 0.398876 0.568703 O2-
0.824438 0.101124 0.556297 O2-
0.175562 0.398876 0.568703 O2-
0.324438 0.101124 0.556297 O2-
0.875000 0.500000 0.552083 O2-
0.425562 0.898876 0.547870 O2-
0.074438 0.601124 0.577130 O2-
0.925562 0.898876 0.547870 O2-
0.574438 0.601124 0.577130 O2-
0.625000 0.000000 0.614583 O2-
0.175562 0.398876 0.610370 O2-
0.324438 0.101124 0.597963 O2-
0.675562 0.398876 0.610370 O2-
0.824438 0.101124 0.597963 O2-
0.375000 0.500000 0.593750 O2-
0.925562 0.898876 0.589537 O2-
0.574438 0.601124 0.618797 O2-
0.425562 0.898876 0.589537 O2-
0.074438 0.601124 0.618797 O2-
0.125000 0.000000 0.656250 O2-
0.675562 0.398876 0.652037 O2-
0.824438 0.101124 0.639630 O2-
0.175562 0.398876 0.652037 O2-
0.324438 0.101124 0.639630 O2-
0.875000 0.500000 0.635417 O2-
0.425562 0.898876 0.631203 O2-
0.074438 0.601124 0.660463 O2-
0.925562 0.898876 0.631203 O2-
0.574438 0.601124 0.660463 O2-
0.625000 0.000000 0.697917 O2-
0.175562 0.398876 0.693703 O2-
0.324438 0.101124 0.681297 O2-
0.675562 0.398876 0.693703 O2-
0.824438 0.101124 0.681297 O2-
0.375000 0.500000 0.677083 O2-
0.925562 0.898876 0.672870 O2-
0.574438 0.601124 0.702130 O2-
0.425562 0.898876 0.672870 O2-
0.074438 0.601124 0.702130 O2-
0.125000 0.000000 0.739583 O2-
0.675562 0.398876 0.735370 O2-
0.824438 0.101124 0.722963 O2-
0.175562 0.398876 0.735370 O2-
0.324438 0.101124 0.722963 O2-
0.875000 0.500000 0.718750 O2-
0.425562 0.898876 0.714537 O2-
0.074438 0.601124 0.743797 O2-
0.925562 0.898876 0.714537 O2-
0.574438 0.601124 0.743797 O2-
